     Program PHONON v.7.1 starts on  3Jun2024 at 15:31:10

     R & G space division:  proc/nbgrp/npool/nimage =       6

     Reading input from ph.in

     Reading xml data from directory:

     ./tmp/al.save/

     IMPORTANT: XC functional enforced from input :
     Exchange-correlation= PBE
                           (   1   4   3   4   0   0   0)
     Any further DFT definition will be discarded
     Please, verify this is what you really want

     Using Slab Decomposition

     Reading collected, re-writing distributed wavefunctions

     Dynamical matrices for ( 4, 4, 4)  uniform grid of q-points
     (   8 q-points):
       N         xq(1)         xq(2)         xq(3)
       1   0.000000000   0.000000000   0.000000000
       2  -0.250000000   0.250000000  -0.250000000
       3   0.500000000  -0.500000000   0.500000000
       4   0.000000000   0.500000000   0.000000000
       5   0.750000000  -0.250000000   0.750000000
       6   0.500000000   0.000000000   0.500000000
       7   0.000000000  -1.000000000   0.000000000
       8  -0.500000000  -1.000000000   0.000000000

     Calculation of q =    0.0000000   0.0000000   0.0000000

     al

     bravais-lattice index     =            2
     lattice parameter (alat)  =       7.4305  a.u.
     unit-cell volume          =     102.5647 (a.u.)^3
     number of atoms/cell      =            1
     number of atomic types    =            1
     kinetic-energy cut-off    =      50.0000  Ry
     charge density cut-off    =     500.0000  Ry
     convergence threshold     =      1.0E-16
     beta                      =       0.7000
     number of iterations used =            4
     Exchange-correlation= PBE
                           (   1   4   3   4   0   0   0)

     celldm(1)=    7.43052  celldm(2)=    0.00000  celldm(3)=    0.00000
     celldm(4)=    0.00000  celldm(5)=    0.00000  celldm(6)=    0.00000

     crystal axes: (cart. coord. in units of alat)
               a(1) = ( -0.5000  0.0000  0.5000 )
               a(2) = (  0.0000  0.5000  0.5000 )
               a(3) = ( -0.5000  0.5000  0.0000 )

     reciprocal axes: (cart. coord. in units 2 pi/alat)
               b(1) = ( -1.0000 -1.0000  1.0000 )
               b(2) = (  1.0000  1.0000  1.0000 )
               b(3) = ( -1.0000  1.0000 -1.0000 )

     Atoms inside the unit cell:

     Cartesian axes

     site n.  atom      mass           positions (alat units)
        1     Al  26.9815   tau(    1) = (    0.00000    0.00000    0.00000  )

     Computing dynamical matrix for
                    q = (   0.0000000   0.0000000   0.0000000 )

     49 Sym.Ops. (with q -> -q+G )

     G cutoff =  699.2765  (   3263 G-vectors)     FFT grid: ( 40, 40, 40)
     G cutoff =  279.7106  (    819 G-vectors)  smooth grid: ( 24, 24, 24)

     number of k points=    72  Gaussian smearing, width (Ry)=  0.0100

     PseudoPot. # 1 for Al read from file:
     /home/bonacc_m/Downloads/sg15_oncv_upf_2020-02-06/Al_ONCV_PBE-1.2.upf
     MD5 check sum: 2d9e7bc02555220d62fad08c3c4858e7
     Pseudo is Norm-conserving, Zval = 11.0
     Generated using ONCVPSP code by D. R. Hamann
     Using radial grid of  602 points,  4 beta functions with:
                l(1) =   0
                l(2) =   0
                l(3) =   1
                l(4) =   1

     Mode symmetry, O_h (m-3m)  point group:

     Atomic displacements:
     There are    1 irreducible representations

     Representation     1      3 modes -  To be done

     Alpha used in Ewald sum =   2.8000

     Representation #   1 modes #   1   2   3

     Self-consistent Calculation

     Pert. #  1: Fermi energy shift (Ry) =     4.4116E-24     3.1347E-38
     Pert. #  2: Fermi energy shift (Ry) =    -1.1029E-24     2.0375E-37
     Pert. #  3: Fermi energy shift (Ry) =    -2.7573E-24     7.8366E-38

      thresh= 1.000E-02 alpha_mix =  0.700 |ddv_scf|^2 =  3.193E-06

[...]

     Pert. #  1: Fermi energy shift (Ry) =    -2.1541E-26    -1.9132E-42
     Pert. #  2: Fermi energy shift (Ry) =     3.5004E-27    -2.8699E-42
     Pert. #  3: Fermi energy shift (Ry) =     9.2088E-26    -4.5439E-42

[...]

     End of self-consistent calculation

     Convergence has been achieved

     Number of q in the star =    1
     List of q in the star:
          1   0.000000000   0.000000000   0.000000000

     Diagonalizing the dynamical matrix

     q = (    0.000000000   0.000000000   0.000000000 )

     freq (    1) =       0.140205 [THz] =       4.676729 [cm-1]
     freq (    2) =       0.140205 [THz] =       4.676729 [cm-1]
     freq (    3) =       0.140205 [THz] =       4.676729 [cm-1]

     Mode symmetry, O_h (m-3m)  point group:

     freq (   1-   3) =          4.7  [cm-1]   --> T_1u G_15  G_4- I

     Calculation of q =   -0.2500000   0.2500000  -0.2500000
     Subspace diagonalization in iterative solution of the eigenvalue problem:
     a serial algorithm will be used

[...]

     Title:
     al

     bravais-lattice index     =            2
     lattice parameter (alat)  =       7.4305  a.u.
     unit-cell volume          =     102.5647 (a.u.)^3
     number of atoms/cell      =            1
     number of atomic types    =            1
     number of electrons       =        11.00
     number of Kohn-Sham states=           10
     kinetic-energy cutoff     =      50.0000  Ry
     charge density cutoff     =     500.0000  Ry
     Exchange-correlation= PBE
                           (   1   4   3   4   0   0   0)

[...]

     atomic species   valence    mass     pseudopotential
        Al            11.00    26.98154     Al( 1.00)

     48 Sym. Ops., with inversion, found

[...]

     site n.     atom                  positions (alat units)
         1           Al  tau(   1) = (   0.0000000   0.0000000   0.0000000  )

[...]

     Number of k-points >= 100: set verbosity='high' to print them.

     The potential is recalculated from file :
     ./tmp/_ph0/al.save/charge-density

     Starting wfcs are    0 atomic +   10 random wfcs

     Band Structure Calculation
     Davidson diagonalization with overlap

     ethr =  9.09E-11,  avg # of iterations = 16.0

     End of band structure calculation

     Number of k-points >= 100: set verbosity='high' to print the bands.

     the Fermi energy is    11.9829 ev

     Writing config to output data dir ./tmp/_ph0/al.save/

[...]

      6 Sym.Ops. (no q -> -q+G )

[...]

     Mode symmetry, C_3v (3m)   point group:

[...]

     Representation #   1 mode #   1

[...]

     Mode symmetry, C_3v (3m)   point group:

     freq (   1-   2) =        129.6  [cm-1]   --> E    L_3
     freq (   3-   3) =        267.9  [cm-1]   --> A_1  L_1

[...]

     Mode symmetry, D_3d (-3m)  point group:

[...]

     freq (   1-   2) =        167.2  [cm-1]   --> E_u  L_3'
     freq (   3-   3) =        347.7  [cm-1]   --> A_2u L_2'

[...]

     Mode symmetry, C_4v (4mm)  point group:

[...]

     Mode symmetry, C_4v (4mm)  point group:

     freq (   1-   2) =        164.5  [cm-1]   --> E    G_5 D_5
     freq (   3-   3) =        263.0  [cm-1]   --> A_1  G_1 D_1

[...]

     Mode symmetry, C_s (m)     point group:

[...]

     Mode symmetry, C_s (m)     point group:

     freq (   1-   1) =        205.4  [cm-1]   --> A''
     freq (   2-   2) =        256.5  [cm-1]   --> A'
     freq (   3-   3) =        342.5  [cm-1]   --> A'

[...]

     Mode symmetry, C_2v (mm2)  point group:

[...]

     Mode symmetry, C_2v (mm2)  point group:

     freq (   1-   1) =        178.8  [cm-1]   --> B_1  D_3  S_3
     freq (   2-   2) =        242.1  [cm-1]   --> B_2  D_4  S_4
     freq (   3-   3) =        318.9  [cm-1]   --> A_1  D_1  S_1

[...]

     17 Sym.Ops. (with q -> -q+G )

[...]

     Mode symmetry, D_4h(4/mmm) point group:

[...]

     Mode symmetry, D_4h(4/mmm) point group:

     freq (   1-   2) =        231.0  [cm-1]   --> E_u  X_5' M_5'
     freq (   3-   3) =        382.9  [cm-1]   --> A_2u X_4' M_4'

     Calculation of q =   -0.5000000  -1.0000000   0.0000000

     Using Slab Decomposition

     Title:
     al

     bravais-lattice index     =            2
     lattice parameter (alat)  =       7.4305  a.u.
     unit-cell volume          =     102.5647 (a.u.)^3
     number of atoms/cell      =            1
     number of atomic types    =            1
     number of electrons       =        11.00
     number of Kohn-Sham states=           10
     kinetic-energy cutoff     =      50.0000  Ry
     charge density cutoff     =     500.0000  Ry
     Exchange-correlation= PBE
                           (   1   4   3   4   0   0   0)

[...]

     atomic species   valence    mass     pseudopotential
        Al            11.00    26.98154     Al( 1.00)

     48 Sym. Ops., with inversion, found

[...]

     site n.     atom                  positions (alat units)
         1           Al  tau(   1) = (   0.0000000   0.0000000   0.0000000  )

[...]

     Number of k-points >= 100: set verbosity='high' to print them.

     The potential is recalculated from file :
     ./tmp/_ph0/al.save/charge-density

     Starting wfcs are    0 atomic +   10 random wfcs

     Band Structure Calculation
     Davidson diagonalization with overlap

     ethr =  9.09E-11,  avg # of iterations = 15.7

     End of band structure calculation

     Number of k-points >= 100: set verbosity='high' to print the bands.

     the Fermi energy is    11.9829 ev

     Writing config to output data dir ./tmp/_ph0/al.save/

     al

     bravais-lattice index     =            2
     lattice parameter (alat)  =       7.4305  a.u.
     unit-cell volume          =     102.5647 (a.u.)^3
     number of atoms/cell      =            1
     number of atomic types    =            1
     kinetic-energy cut-off    =      50.0000  Ry
     charge density cut-off    =     500.0000  Ry
     convergence threshold     =      1.0E-16
     beta                      =       0.7000
     number of iterations used =            4
     Exchange-correlation= PBE
                           (   1   4   3   4   0   0   0)

     celldm(1)=    7.43052  celldm(2)=    0.00000  celldm(3)=    0.00000
     celldm(4)=    0.00000  celldm(5)=    0.00000  celldm(6)=    0.00000

     crystal axes: (cart. coord. in units of alat)
               a(1) = ( -0.5000  0.0000  0.5000 )
               a(2) = (  0.0000  0.5000  0.5000 )
               a(3) = ( -0.5000  0.5000  0.0000 )

     reciprocal axes: (cart. coord. in units 2 pi/alat)
               b(1) = ( -1.0000 -1.0000  1.0000 )
               b(2) = (  1.0000  1.0000  1.0000 )
               b(3) = ( -1.0000  1.0000 -1.0000 )

     Atoms inside the unit cell:

     Cartesian axes

     site n.  atom      mass           positions (alat units)
        1     Al  26.9815   tau(    1) = (    0.00000    0.00000    0.00000  )

     Computing dynamical matrix for
                    q = (  -0.5000000  -1.0000000   0.0000000 )

      8 Sym.Ops. (no q -> -q+G )

     G cutoff =  699.2765  (   3263 G-vectors)     FFT grid: ( 40, 40, 40)
     G cutoff =  279.7106  (    818 G-vectors)  smooth grid: ( 24, 24, 24)

     number of k points=   524  Gaussian smearing, width (Ry)=  0.0100

     PseudoPot. # 1 for Al read from file:
     /home/bonacc_m/Downloads/sg15_oncv_upf_2020-02-06/Al_ONCV_PBE-1.2.upf
     MD5 check sum: 2d9e7bc02555220d62fad08c3c4858e7
     Pseudo is Norm-conserving, Zval = 11.0
     Generated using ONCVPSP code by D. R. Hamann
     Using radial grid of  602 points,  4 beta functions with:
                l(1) =   0
                l(2) =   0
                l(3) =   1
                l(4) =   1

[...]

     Atomic displacements:
     There are    2 irreducible representations

[...]

     Representation     2      2 modes -  To be done

     Alpha used in Ewald sum =   2.8000

     Representation #   1 mode #   1

[...]

     Representation #   2 modes #   2   3

     Self-consistent Calculation

[...]

      thresh= 1.097E-09 alpha_mix =  0.700 |ddv_scf|^2 =  4.602E-20

     End of self-consistent calculation

     Convergence has been achieved

     Number of q in the star =    6
     List of q in the star:
          1  -0.500000000  -1.000000000   0.000000000
          2   0.000000000   1.000000000   0.500000000
          3   0.000000000  -1.000000000  -0.500000000
          4   0.500000000   1.000000000   0.000000000
          5  -1.000000000  -0.500000000   0.000000000
          6   0.000000000  -0.500000000  -1.000000000

     Diagonalizing the dynamical matrix

     q = (   -0.500000000  -1.000000000   0.000000000 )

     freq (    1) =       7.539894 [THz] =     251.503781 [cm-1]
     freq (    2) =       9.366552 [THz] =     312.434546 [cm-1]
     freq (    3) =       9.366552 [THz] =     312.434546 [cm-1]

     Mode symmetry, D_2d (-42m) point group:

     freq (   1-   1) =        251.5  [cm-1]   --> B_2  X_3  W_2
     freq (   2-   3) =        312.4  [cm-1]   --> E    X_5  W_3

     General routines

     Parallel routines

     INITIALIZATION:

     DYNAMICAL MATRIX:

      General routines

   This run was terminated on:  15:39:25   3Jun2024

   JOB DONE.