     Program PHONON v.7.1 starts on  2May2024 at 17: 1:17

     R & G space division:  proc/nbgrp/npool/nimage =       6

     Reading input from al.ph.in

     Reading xml data from directory:

     ./tmp/al.save/

     IMPORTANT: XC functional enforced from input :
     Exchange-correlation= PZ
                           (   1   1   0   0   0   0   0)
     Any further DFT definition will be discarded
     Please, verify this is what you really want

     Using Slab Decomposition

     Reading collected, re-writing distributed wavefunctions

     Dynamical matrices for ( 4, 4, 4)  uniform grid of q-points
     (   8 q-points):
       N         xq(1)         xq(2)         xq(3)
       1   0.000000000   0.000000000   0.000000000
       2  -0.250000000   0.250000000  -0.250000000
       3   0.500000000  -0.500000000   0.500000000
       4   0.000000000   0.500000000   0.000000000
       5   0.750000000  -0.250000000   0.750000000
       6   0.500000000   0.000000000   0.500000000
       7   0.000000000  -1.000000000   0.000000000
       8  -0.500000000  -1.000000000   0.000000000

     Calculation of q =    0.0000000   0.0000000   0.0000000

     al

     bravais-lattice index     =            2
     lattice parameter (alat)  =       7.6307  a.u.
     unit-cell volume          =     111.0815 (a.u.)^3
     number of atoms/cell      =            1
     number of atomic types    =            1
     kinetic-energy cut-off    =      50.0000  Ry
     charge density cut-off    =     500.0000  Ry
     convergence threshold     =      1.0E-13
     beta                      =       0.7000
     number of iterations used =            4
     Exchange-correlation= PZ
                           (   1   1   0   0   0   0   0)

     celldm(1)=    7.63075  celldm(2)=    0.00000  celldm(3)=    0.00000
     celldm(4)=    0.00000  celldm(5)=    0.00000  celldm(6)=    0.00000

     crystal axes: (cart. coord. in units of alat)
               a(1) = ( -0.5000  0.0000  0.5000 )
               a(2) = (  0.0000  0.5000  0.5000 )
               a(3) = ( -0.5000  0.5000  0.0000 )

     reciprocal axes: (cart. coord. in units 2 pi/alat)
               b(1) = ( -1.0000 -1.0000  1.0000 )
               b(2) = (  1.0000  1.0000  1.0000 )
               b(3) = ( -1.0000  1.0000 -1.0000 )

     Atoms inside the unit cell:

     Cartesian axes

     site n.  atom      mass           positions (alat units)
        1     Al  26.9815   tau(    1) = (    0.00000    0.00000    0.00000  )

     Computing dynamical matrix for
                    q = (   0.0000000   0.0000000   0.0000000 )

     49 Sym.Ops. (with q -> -q+G )

     G cutoff =  737.4706  (   3480 G-vectors)     FFT grid: ( 40, 40, 40)
     G cutoff =  294.9882  (    868 G-vectors)  smooth grid: ( 25, 25, 25)

     number of k points=    29  Gaussian smearing, width (Ry)=  0.0100

     PseudoPot. # 1 for Al read from file:
     /home/bonacc_m/Documents/phonons/material-for-ljubljana-qe-summer-school/pseudo/Al.pz-vbc.UPF
     MD5 check sum: 69dcd8cd7cc1bedf536afd524f174f6a
     Pseudo is Norm-conserving, Zval =  3.0
     Generated by new atomic code, or converted to UPF format
     Using radial grid of  171 points,  2 beta functions with:
                l(1) =   0
                l(2) =   1

     Mode symmetry, O_h (m-3m)  point group:

     Atomic displacements:
     There are    1 irreducible representations

     Representation     1      3 modes -  To be done

     Alpha used in Ewald sum =   2.8000

     Representation #   1 modes #   1   2   3

     Self-consistent Calculation

     Pert. #  1: Fermi energy shift (Ry) =     1.5165E-24    -3.5265E-38
     Pert. #  2: Fermi energy shift (Ry) =    -1.1201E-24     7.8366E-39
     Pert. #  3: Fermi energy shift (Ry) =     4.8252E-25    -4.3101E-38

      thresh= 1.000E-02 alpha_mix =  0.700 |ddv_scf|^2 =  7.381E-10

[...]

     Pert. #  1: Fermi energy shift (Ry) =     7.9271E-25    -1.8893E-40
     Pert. #  2: Fermi energy shift (Ry) =    -6.5485E-25    -3.0612E-41
     Pert. #  3: Fermi energy shift (Ry) =     1.1374E-24     1.5306E-41

[...]

     End of self-consistent calculation

     Convergence has been achieved

     Number of q in the star =    1
     List of q in the star:
          1   0.000000000   0.000000000   0.000000000

     Diagonalizing the dynamical matrix

     q = (    0.000000000   0.000000000   0.000000000 )

     freq (    1) =       0.167693 [THz] =       5.593635 [cm-1]
     freq (    2) =       0.167693 [THz] =       5.593635 [cm-1]
     freq (    3) =       0.167693 [THz] =       5.593635 [cm-1]

     Mode symmetry, O_h (m-3m)  point group:

     freq (   1-   3) =          5.6  [cm-1]   --> T_1u G_15  G_4- I

     Calculation of q =   -0.2500000   0.2500000  -0.2500000
     Subspace diagonalization in iterative solution of the eigenvalue problem:
     a serial algorithm will be used

[...]

     Title:
     al

     bravais-lattice index     =            2
     lattice parameter (alat)  =       7.6307  a.u.
     unit-cell volume          =     111.0815 (a.u.)^3
     number of atoms/cell      =            1
     number of atomic types    =            1
     number of electrons       =         3.00
     number of Kohn-Sham states=            6
     kinetic-energy cutoff     =      50.0000  Ry
     charge density cutoff     =     500.0000  Ry
     Exchange-correlation= PZ
                           (   1   1   0   0   0   0   0)

[...]

     atomic species   valence    mass     pseudopotential
        Al             3.00    26.98154     Al( 1.00)

     48 Sym. Ops., with inversion, found

[...]

     site n.     atom                  positions (alat units)
         1           Al  tau(   1) = (   0.0000000   0.0000000   0.0000000  )

[...]

     Number of k-points >= 100: set verbosity='high' to print them.

     The potential is recalculated from file :
     ./tmp/_ph0/al.save/charge-density

     Starting wfcs are    4 atomic +    2 random wfcs

     Band Structure Calculation
     Davidson diagonalization with overlap

     ethr =  3.33E-10,  avg # of iterations = 15.7

     End of band structure calculation

     Number of k-points >= 100: set verbosity='high' to print the bands.

     the Fermi energy is     7.7758 ev

     Writing config to output data dir ./tmp/_ph0/al.save/

[...]

      6 Sym.Ops. (no q -> -q+G )

[...]

     Mode symmetry, C_3v (3m)   point group:

[...]

     Representation #   1 mode #   1

[...]

     Mode symmetry, C_3v (3m)   point group:

     freq (   1-   2) =        109.7  [cm-1]   --> E    L_3
     freq (   3-   3) =        194.7  [cm-1]   --> A_1  L_1

[...]

     Mode symmetry, D_3d (-3m)  point group:

[...]

     freq (   1-   2) =        135.3  [cm-1]   --> E_u  L_3'
     freq (   3-   3) =        295.5  [cm-1]   --> A_2u L_2'

[...]

     Mode symmetry, C_4v (4mm)  point group:

[...]

     Mode symmetry, C_4v (4mm)  point group:

     freq (   1-   2) =        129.8  [cm-1]   --> E    G_5 D_5
     freq (   3-   3) =        225.0  [cm-1]   --> A_1  G_1 D_1

[...]

     Mode symmetry, C_s (m)     point group:

[...]

     Mode symmetry, C_s (m)     point group:

     freq (   1-   1) =        160.7  [cm-1]   --> A''
     freq (   2-   2) =        205.6  [cm-1]   --> A'
     freq (   3-   3) =        260.1  [cm-1]   --> A'

[...]

     Mode symmetry, C_2v (mm2)  point group:

[...]

     Mode symmetry, C_2v (mm2)  point group:

     freq (   1-   1) =        148.6  [cm-1]   --> B_1  D_3  S_3
     freq (   2-   2) =        201.8  [cm-1]   --> B_2  D_4  S_4
     freq (   3-   3) =        254.6  [cm-1]   --> A_1  D_1  S_1

[...]

     17 Sym.Ops. (with q -> -q+G )

[...]

     Mode symmetry, D_4h(4/mmm) point group:

[...]

     Mode symmetry, D_4h(4/mmm) point group:

     freq (   1-   2) =        173.2  [cm-1]   --> E_u  X_5' M_5'
     freq (   3-   3) =        326.3  [cm-1]   --> A_2u X_4' M_4'

     Calculation of q =   -0.5000000  -1.0000000   0.0000000

     Using Slab Decomposition

     Title:
     al

     bravais-lattice index     =            2
     lattice parameter (alat)  =       7.6307  a.u.
     unit-cell volume          =     111.0815 (a.u.)^3
     number of atoms/cell      =            1
     number of atomic types    =            1
     number of electrons       =         3.00
     number of Kohn-Sham states=            6
     kinetic-energy cutoff     =      50.0000  Ry
     charge density cutoff     =     500.0000  Ry
     Exchange-correlation= PZ
                           (   1   1   0   0   0   0   0)

[...]

     atomic species   valence    mass     pseudopotential
        Al             3.00    26.98154     Al( 1.00)

     48 Sym. Ops., with inversion, found

[...]

     site n.     atom                  positions (alat units)
         1           Al  tau(   1) = (   0.0000000   0.0000000   0.0000000  )

[...]

     Number of k-points >= 100: set verbosity='high' to print them.

     The potential is recalculated from file :
     ./tmp/_ph0/al.save/charge-density

     Starting wfcs are    4 atomic +    2 random wfcs

     Band Structure Calculation
     Davidson diagonalization with overlap

     ethr =  3.33E-10,  avg # of iterations = 14.9

     End of band structure calculation

     Number of k-points >= 100: set verbosity='high' to print the bands.

     the Fermi energy is     7.7758 ev

     Writing config to output data dir ./tmp/_ph0/al.save/

     al

     bravais-lattice index     =            2
     lattice parameter (alat)  =       7.6307  a.u.
     unit-cell volume          =     111.0815 (a.u.)^3
     number of atoms/cell      =            1
     number of atomic types    =            1
     kinetic-energy cut-off    =      50.0000  Ry
     charge density cut-off    =     500.0000  Ry
     convergence threshold     =      1.0E-13
     beta                      =       0.7000
     number of iterations used =            4
     Exchange-correlation= PZ
                           (   1   1   0   0   0   0   0)

     celldm(1)=    7.63075  celldm(2)=    0.00000  celldm(3)=    0.00000
     celldm(4)=    0.00000  celldm(5)=    0.00000  celldm(6)=    0.00000

     crystal axes: (cart. coord. in units of alat)
               a(1) = ( -0.5000  0.0000  0.5000 )
               a(2) = (  0.0000  0.5000  0.5000 )
               a(3) = ( -0.5000  0.5000  0.0000 )

     reciprocal axes: (cart. coord. in units 2 pi/alat)
               b(1) = ( -1.0000 -1.0000  1.0000 )
               b(2) = (  1.0000  1.0000  1.0000 )
               b(3) = ( -1.0000  1.0000 -1.0000 )

     Atoms inside the unit cell:

     Cartesian axes

     site n.  atom      mass           positions (alat units)
        1     Al  26.9815   tau(    1) = (    0.00000    0.00000    0.00000  )

     Computing dynamical matrix for
                    q = (  -0.5000000  -1.0000000   0.0000000 )

      8 Sym.Ops. (no q -> -q+G )

     G cutoff =  737.4706  (   3480 G-vectors)     FFT grid: ( 40, 40, 40)
     G cutoff =  294.9882  (    868 G-vectors)  smooth grid: ( 25, 25, 25)

     number of k points=   174  Gaussian smearing, width (Ry)=  0.0100

     PseudoPot. # 1 for Al read from file:
     /home/bonacc_m/Documents/phonons/material-for-ljubljana-qe-summer-school/pseudo/Al.pz-vbc.UPF
     MD5 check sum: 69dcd8cd7cc1bedf536afd524f174f6a
     Pseudo is Norm-conserving, Zval =  3.0
     Generated by new atomic code, or converted to UPF format
     Using radial grid of  171 points,  2 beta functions with:
                l(1) =   0
                l(2) =   1

[...]

     Atomic displacements:
     There are    2 irreducible representations

[...]

     Representation     2      2 modes -  To be done

     Alpha used in Ewald sum =   2.8000

     Representation #   1 mode #   1

[...]

     Representation #   2 modes #   2   3

     Self-consistent Calculation

[...]

      thresh= 7.167E-07 alpha_mix =  0.700 |ddv_scf|^2 =  8.881E-14

     End of self-consistent calculation

     Convergence has been achieved

     Number of q in the star =    6
     List of q in the star:
          1  -0.500000000  -1.000000000   0.000000000
          2   0.000000000   1.000000000   0.500000000
          3   0.000000000  -1.000000000  -0.500000000
          4   0.500000000   1.000000000   0.000000000
          5  -1.000000000  -0.500000000   0.000000000
          6   0.000000000  -0.500000000  -1.000000000

     Diagonalizing the dynamical matrix

     q = (   -0.500000000  -1.000000000   0.000000000 )

     freq (    1) =       5.970697 [THz] =     199.161029 [cm-1]
     freq (    2) =       7.409828 [THz] =     247.165253 [cm-1]
     freq (    3) =       7.409828 [THz] =     247.165253 [cm-1]

     Mode symmetry, D_2d (-42m) point group:

     freq (   1-   1) =        199.2  [cm-1]   --> B_2  X_3  W_2
     freq (   2-   3) =        247.2  [cm-1]   --> E    X_5  W_3

     General routines

     Parallel routines

     INITIALIZATION:

     DYNAMICAL MATRIX:

      General routines

   This run was terminated on:  17: 2:36   2May2024

   JOB DONE.