     Program PHONON v.7.1 starts on  2May2024 at 16:24:46

     R & G space division:  proc/nbgrp/npool/nimage =       6

     Reading input from graphite.ph.in

     Reading xml data from directory:

     /home/bonacc_m/Documents/phonons/example16/TMP_graphite/graphite.save/
     file C.pbe-rrkjus.UPF: wavefunction(s)  2S 2P renormalized

     IMPORTANT: XC functional enforced from input :
     Exchange-correlation= PBE
                           (   1   4   3   4   0   0   0)
     Any further DFT definition will be discarded
     Please, verify this is what you really want

     Using Slab Decomposition

     Reading collected, re-writing distributed wavefunctions

     Dynamical matrices for ( 4, 4, 2)  uniform grid of q-points
     (   8 q-points):
       N         xq(1)         xq(2)         xq(3)
       1   0.000000000   0.000000000   0.000000000
       2   0.000000000   0.000000000  -0.193607630
       3   0.000000000   0.288675135   0.000000000
       4   0.000000000   0.288675135  -0.193607630
       5   0.000000000  -0.577350269   0.000000000
       6   0.000000000  -0.577350269  -0.193607630
       7   0.250000000   0.433012702   0.000000000
       8   0.250000000   0.433012702  -0.193607630

     Calculation of q =    0.0000000   0.0000000   0.0000000

     Graphite

     bravais-lattice index     =            4
     lattice parameter (alat)  =       4.6463  a.u.
     unit-cell volume          =     224.3370 (a.u.)^3
     number of atoms/cell      =            4
     number of atomic types    =            1
     kinetic-energy cut-off    =      30.0000  Ry
     charge density cut-off    =     180.0000  Ry
     convergence threshold     =      1.0E-16
     beta                      =       0.7000
     number of iterations used =            4
     Exchange-correlation= PBE
                           (   1   4   3   4   0   0   0)

     celldm(1)=    4.64630  celldm(2)=    0.00000  celldm(3)=    2.58254
     celldm(4)=    0.00000  celldm(5)=    0.00000  celldm(6)=    0.00000

     crystal axes: (cart. coord. in units of alat)
               a(1) = (  1.0000  0.0000  0.0000 )
               a(2) = ( -0.5000  0.8660  0.0000 )
               a(3) = (  0.0000  0.0000  2.5825 )

     reciprocal axes: (cart. coord. in units 2 pi/alat)
               b(1) = (  1.0000  0.5774 -0.0000 )
               b(2) = (  0.0000  1.1547  0.0000 )
               b(3) = (  0.0000 -0.0000  0.3872 )

     Atoms inside the unit cell:

     Cartesian axes

     site n.  atom      mass           positions (alat units)
        1     C   12.0000   tau(    1) = (    0.00000    0.00000    0.00000  )
        2     C   12.0000   tau(    2) = (   -0.00000    0.57735    0.00000  )
        3     C   12.0000   tau(    3) = (    0.00000    0.00000    1.29127  )
        4     C   12.0000   tau(    4) = (    0.50000    0.28868    1.29127  )

     Computing dynamical matrix for
                    q = (   0.0000000   0.0000000   0.0000000 )

     25 Sym.Ops. (with q -> -q+G )

     G cutoff =   98.4301  (   1521 G-vectors)     FFT grid: ( 20, 20, 54)
     G cutoff =   65.6201  (    825 G-vectors)  smooth grid: ( 18, 18, 48)
     number of k points=    40

     PseudoPot. # 1 for C  read from file:
     /home/bonacc_m/Codes/q-e/pseudo/C.pbe-rrkjus.UPF
     MD5 check sum: c9ac5a99bc85b198593446162950cd17
     Pseudo is Ultrasoft, Zval =  4.0
     Generated by new atomic code, or converted to UPF format
     Using radial grid of  627 points,  4 beta functions with:
                l(1) =   0
                l(2) =   0
                l(3) =   1
                l(4) =   1
     Q(r) pseudized with 0 coefficients

     Mode symmetry, D_6h(6/mmm) point group:

     Electric field:
     Dielectric constant
     Born effective charges in two ways

     Atomic displacements:
     There are    8 irreducible representations

     Representation     1      1 modes -  To be done

[...]

     Alpha used in Ewald sum =   1.8000

     Electric Fields Calculation

      thresh= 1.000E-02 alpha_mix =  0.700 |ddv_scf|^2 =  1.362E-06

[...]

     End of electric fields calculation

          Dielectric constant in cartesian axis

          (      74.558105274      -0.000000000       0.000000000 )
          (      -0.000000000      74.558105274       0.000000000 )
          (       0.000000000       0.000000000       3.597784260 )

          Effective charges (d Force / dE) in cartesian axis without acoustic sum rule applied (asr)

           atom      1   C  Mean Z*:        0.56287
      Ex  (        0.79194        0.00000       -0.00000 )
      Ey  (        0.00000        0.79194       -0.00000 )
      Ez  (        0.00000       -0.00000        0.10475 )
           atom      2   C  Mean Z*:       -0.57329
      Ex  (       -0.80966        0.00000       -0.00000 )
      Ey  (       -0.00000       -0.80966        0.00000 )
      Ez  (        0.00000       -0.00000       -0.10055 )
           atom      3   C  Mean Z*:        0.56287
      Ex  (        0.79194        0.00000        0.00000 )
      Ey  (        0.00000        0.79194        0.00000 )
      Ez  (        0.00000        0.00000        0.10475 )
           atom      4   C  Mean Z*:       -0.57329
      Ex  (       -0.80966        0.00000        0.00000 )
      Ey  (       -0.00000       -0.80966       -0.00000 )
      Ez  (        0.00000        0.00000       -0.10055 )

          Effective charges Sum: Mean:       -0.02083
             -0.03546       -0.00000        0.00000
              0.00000       -0.03546       -0.00000
             -0.00000        0.00000        0.00841

          Effective charges (d Force / dE) in cartesian axis with asr applied:
           atom      1   C  Mean Z*:        0.56808
      E*x (        0.80080       -0.00000        0.00000 )
      E*y (        0.00000        0.80080       -0.00000 )
      E*z (       -0.00000       -0.00000        0.10265 )
           atom      2   C  Mean Z*:       -0.56808
      E*x (       -0.80080        0.00000       -0.00000 )
      E*y (       -0.00000       -0.80080        0.00000 )
      E*z (        0.00000       -0.00000       -0.10265 )
           atom      3   C  Mean Z*:        0.56808
      E*x (        0.80080       -0.00000        0.00000 )
      E*y (        0.00000        0.80080       -0.00000 )
      E*z (       -0.00000        0.00000        0.10265 )
           atom      4   C  Mean Z*:       -0.56808
      E*x (       -0.80080       -0.00000        0.00000 )
      E*y (       -0.00000       -0.80080       -0.00000 )
      E*z (        0.00000        0.00000       -0.10265 )

     Representation #   1 mode #   1

     Self-consistent Calculation

[...]

     End of self-consistent calculation

     Convergence has been achieved

[...]

     Representation #   3 modes #   3   4

[...]

     Number of q in the star =    1
     List of q in the star:
          1   0.000000000   0.000000000   0.000000000

          Dielectric constant in cartesian axis

          (      74.558105274      -0.000000000       0.000000000 )
          (      -0.000000000      74.558105274       0.000000000 )
          (       0.000000000       0.000000000       3.597784260 )

          Effective charges (d Force / dE) in cartesian axis without acoustic sum rule applied (asr)

           atom      1   C  Mean Z*:        0.56287
      Ex  (        0.79194        0.00000       -0.00000 )
      Ey  (        0.00000        0.79194       -0.00000 )
      Ez  (        0.00000       -0.00000        0.10475 )
           atom      2   C  Mean Z*:       -0.57329
      Ex  (       -0.80966        0.00000       -0.00000 )
      Ey  (       -0.00000       -0.80966        0.00000 )
      Ez  (        0.00000       -0.00000       -0.10055 )
           atom      3   C  Mean Z*:        0.56287
      Ex  (        0.79194        0.00000        0.00000 )
      Ey  (        0.00000        0.79194        0.00000 )
      Ez  (        0.00000        0.00000        0.10475 )
           atom      4   C  Mean Z*:       -0.57329
      Ex  (       -0.80966        0.00000        0.00000 )
      Ey  (       -0.00000       -0.80966       -0.00000 )
      Ez  (        0.00000        0.00000       -0.10055 )

          Effective charges Sum: Mean:       -0.02083
             -0.03546       -0.00000        0.00000
              0.00000       -0.03546       -0.00000
             -0.00000        0.00000        0.00841

          Effective charges (d Force / dE) in cartesian axis with asr applied:
           atom      1   C  Mean Z*:        0.56808
      E*x (        0.80080       -0.00000        0.00000 )
      E*y (        0.00000        0.80080       -0.00000 )
      E*z (       -0.00000       -0.00000        0.10265 )
           atom      2   C  Mean Z*:       -0.56808
      E*x (       -0.80080        0.00000       -0.00000 )
      E*y (       -0.00000       -0.80080        0.00000 )
      E*z (        0.00000       -0.00000       -0.10265 )
           atom      3   C  Mean Z*:        0.56808
      E*x (        0.80080       -0.00000        0.00000 )
      E*y (        0.00000        0.80080       -0.00000 )
      E*z (       -0.00000        0.00000        0.10265 )
           atom      4   C  Mean Z*:       -0.56808
      E*x (       -0.80080       -0.00000        0.00000 )
      E*y (       -0.00000       -0.80080       -0.00000 )
      E*z (        0.00000        0.00000       -0.10265 )

          Effective charges (d P / du) in cartesian axis

           atom      1   C
      Px  (        0.79194        0.00000       -0.00000 )
      Py  (        0.00000        0.79194        0.00000 )
      Pz  (       -0.00000       -0.00000        0.10475 )
           atom      2   C
      Px  (       -0.80967        0.00000       -0.00000 )
      Py  (       -0.00000       -0.80967        0.00000 )
      Pz  (        0.00000       -0.00000       -0.10054 )
           atom      3   C
      Px  (        0.79194        0.00000       -0.00000 )
      Py  (        0.00000        0.79194        0.00000 )
      Pz  (       -0.00000       -0.00000        0.10475 )
           atom      4   C
      Px  (       -0.80967        0.00000        0.00000 )
      Py  (        0.00000       -0.80967        0.00000 )
      Pz  (       -0.00000        0.00000       -0.10054 )

     Diagonalizing the dynamical matrix

     q = (    0.000000000   0.000000000   0.000000000 )

     freq (    1) =       3.736056 [THz] =     124.621411 [cm-1]
     freq (    2) =       3.736056 [THz] =     124.621411 [cm-1]
     freq (    3) =       4.072306 [THz] =     135.837509 [cm-1]
     freq (    4) =       4.072306 [THz] =     135.837509 [cm-1]
     freq (    5) =       4.804219 [THz] =     160.251488 [cm-1]
     freq (    6) =       7.283861 [THz] =     242.963448 [cm-1]
     freq (    7) =      26.564965 [THz] =     886.111862 [cm-1]
     freq (    8) =      26.795408 [THz] =     893.798596 [cm-1]
     freq (    9) =      46.832433 [THz] =    1562.161812 [cm-1]
     freq (   10) =      46.832433 [THz] =    1562.161812 [cm-1]
     freq (   11) =      47.160264 [THz] =    1573.097090 [cm-1]
     freq (   12) =      47.160264 [THz] =    1573.097090 [cm-1]

     Mode symmetry, D_6h(6/mmm) point group:

[...]

     Calculation of q =    0.0000000   0.0000000  -0.1936076
     Subspace diagonalization in iterative solution of the eigenvalue problem:
     a serial algorithm will be used

[...]

     Title:
     Graphite

     bravais-lattice index     =            4
     lattice parameter (alat)  =       4.6463  a.u.
     unit-cell volume          =     224.3370 (a.u.)^3
     number of atoms/cell      =            4
     number of atomic types    =            1
     number of electrons       =        16.00
     number of Kohn-Sham states=            8
     kinetic-energy cutoff     =      30.0000  Ry
     charge density cutoff     =     180.0000  Ry
     Exchange-correlation= PBE
                           (   1   4   3   4   0   0   0)

[...]

     atomic species   valence    mass     pseudopotential
        C              4.00    12.00000     C ( 1.00)

     24 Sym. Ops., with inversion, found

[...]

     site n.     atom                  positions (alat units)
         1           C   tau(   1) = (   0.0000000   0.0000000   0.0000000  )
         2           C   tau(   2) = (  -0.0000000   0.5773503   0.0000000  )
         3           C   tau(   3) = (   0.0000000   0.0000000   1.2912714  )
         4           C   tau(   4) = (   0.5000000   0.2886751   1.2912714  )

     number of k points=    80
                       cart. coord. in units 2pi/alat
        k(    1) = (   0.0625000   0.1082532   0.0484019), wk =   0.0312500
        k(    2) = (   0.0625000   0.1082532  -0.1452057), wk =   0.0000000
        k(    3) = (   0.0625000   0.1082532   0.1452057), wk =   0.0312500
        k(    4) = (   0.0625000   0.1082532  -0.0484019), wk =   0.0000000
        k(    5) = (   0.0625000   0.2525907   0.0484019), wk =   0.0625000
        k(    6) = (   0.0625000   0.2525907  -0.1452057), wk =   0.0000000
        k(    7) = (   0.0625000   0.2525907   0.1452057), wk =   0.0625000
        k(    8) = (   0.0625000   0.2525907  -0.0484019), wk =   0.0000000
        k(    9) = (   0.0625000   0.3969283   0.0484019), wk =   0.0625000
        k(   10) = (   0.0625000   0.3969283  -0.1452057), wk =   0.0000000
        k(   11) = (   0.0625000   0.3969283   0.1452057), wk =   0.0625000
        k(   12) = (   0.0625000   0.3969283  -0.0484019), wk =   0.0000000
        k(   13) = (   0.0625000   0.5412659   0.0484019), wk =   0.0625000
        k(   14) = (   0.0625000   0.5412659  -0.1452057), wk =   0.0000000
        k(   15) = (   0.0625000   0.5412659   0.1452057), wk =   0.0625000
        k(   16) = (   0.0625000   0.5412659  -0.0484019), wk =   0.0000000
        k(   17) = (   0.0625000  -0.4690971   0.0484019), wk =   0.0625000
        k(   18) = (   0.0625000  -0.4690971  -0.1452057), wk =   0.0000000
        k(   19) = (   0.0625000  -0.4690971   0.1452057), wk =   0.0625000
        k(   20) = (   0.0625000  -0.4690971  -0.0484019), wk =   0.0000000
        k(   21) = (   0.0625000  -0.3247595   0.0484019), wk =   0.0625000
        k(   22) = (   0.0625000  -0.3247595  -0.1452057), wk =   0.0000000
        k(   23) = (   0.0625000  -0.3247595   0.1452057), wk =   0.0625000
        k(   24) = (   0.0625000  -0.3247595  -0.0484019), wk =   0.0000000
        k(   25) = (   0.0625000  -0.1804220   0.0484019), wk =   0.0625000
        k(   26) = (   0.0625000  -0.1804220  -0.1452057), wk =   0.0000000
        k(   27) = (   0.0625000  -0.1804220   0.1452057), wk =   0.0625000
        k(   28) = (   0.0625000  -0.1804220  -0.0484019), wk =   0.0000000
        k(   29) = (   0.0625000  -0.0360844   0.0484019), wk =   0.0312500
        k(   30) = (   0.0625000  -0.0360844  -0.1452057), wk =   0.0000000
        k(   31) = (   0.0625000  -0.0360844   0.1452057), wk =   0.0312500
        k(   32) = (   0.0625000  -0.0360844  -0.0484019), wk =   0.0000000
        k(   33) = (   0.1875000   0.3247595   0.0484019), wk =   0.0312500
        k(   34) = (   0.1875000   0.3247595  -0.1452057), wk =   0.0000000
        k(   35) = (   0.1875000   0.3247595   0.1452057), wk =   0.0312500
        k(   36) = (   0.1875000   0.3247595  -0.0484019), wk =   0.0000000
        k(   37) = (   0.1875000   0.4690971   0.0484019), wk =   0.0625000
        k(   38) = (   0.1875000   0.4690971  -0.1452057), wk =   0.0000000
        k(   39) = (   0.1875000   0.4690971   0.1452057), wk =   0.0625000
        k(   40) = (   0.1875000   0.4690971  -0.0484019), wk =   0.0000000
        k(   41) = (   0.1875000   0.6134347   0.0484019), wk =   0.0625000
        k(   42) = (   0.1875000   0.6134347  -0.1452057), wk =   0.0000000
        k(   43) = (   0.1875000   0.6134347   0.1452057), wk =   0.0625000
        k(   44) = (   0.1875000   0.6134347  -0.0484019), wk =   0.0000000
        k(   45) = (   0.1875000  -0.3969283   0.0484019), wk =   0.0625000
        k(   46) = (   0.1875000  -0.3969283  -0.1452057), wk =   0.0000000
        k(   47) = (   0.1875000  -0.3969283   0.1452057), wk =   0.0625000
        k(   48) = (   0.1875000  -0.3969283  -0.0484019), wk =   0.0000000
        k(   49) = (   0.1875000  -0.2525907   0.0484019), wk =   0.0625000
        k(   50) = (   0.1875000  -0.2525907  -0.1452057), wk =   0.0000000
        k(   51) = (   0.1875000  -0.2525907   0.1452057), wk =   0.0625000
        k(   52) = (   0.1875000  -0.2525907  -0.0484019), wk =   0.0000000
        k(   53) = (   0.1875000  -0.1082532   0.0484019), wk =   0.0312500
        k(   54) = (   0.1875000  -0.1082532  -0.1452057), wk =   0.0000000
        k(   55) = (   0.1875000  -0.1082532   0.1452057), wk =   0.0312500
        k(   56) = (   0.1875000  -0.1082532  -0.0484019), wk =   0.0000000
        k(   57) = (   0.3125000   0.5412659   0.0484019), wk =   0.0312500
        k(   58) = (   0.3125000   0.5412659  -0.1452057), wk =   0.0000000
        k(   59) = (   0.3125000   0.5412659   0.1452057), wk =   0.0312500
        k(   60) = (   0.3125000   0.5412659  -0.0484019), wk =   0.0000000
[...]
        k(   66) = (   0.3125000  -0.3247595  -0.1452057), wk =   0.0000000
        k(   67) = (   0.3125000  -0.3247595   0.1452057), wk =   0.0625000
        k(   68) = (   0.3125000  -0.3247595  -0.0484019), wk =   0.0000000
        k(   69) = (   0.3125000  -0.1804220   0.0484019), wk =   0.0312500
        k(   70) = (   0.3125000  -0.1804220  -0.1452057), wk =   0.0000000
        k(   71) = (   0.3125000  -0.1804220   0.1452057), wk =   0.0312500
        k(   72) = (   0.3125000  -0.1804220  -0.0484019), wk =   0.0000000
        k(   73) = (   0.4375000   0.7577722   0.0484019), wk =   0.0312500
        k(   74) = (   0.4375000   0.7577722  -0.1452057), wk =   0.0000000
        k(   75) = (   0.4375000   0.7577722   0.1452057), wk =   0.0312500
        k(   76) = (   0.4375000   0.7577722  -0.0484019), wk =   0.0000000
        k(   77) = (   0.4375000  -0.2525907   0.0484019), wk =   0.0312500
        k(   78) = (   0.4375000  -0.2525907  -0.1452057), wk =   0.0000000
        k(   79) = (   0.4375000  -0.2525907   0.1452057), wk =   0.0312500
        k(   80) = (   0.4375000  -0.2525907  -0.0484019), wk =   0.0000000

     The potential is recalculated from file :
     /home/bonacc_m/Documents/phonons/example16/TMP_graphite/_ph0/graphite.save/charge-density

     Starting wfcs are   16 atomic wfcs

     Band Structure Calculation
     Davidson diagonalization with overlap

     ethr =  6.25E-11,  avg # of iterations = 10.4

     End of band structure calculation

          k = 0.0625 0.1083 0.0484 (   600 PWs)   bands (ev):

   -11.7683 -11.3568  -0.7009   1.6374   3.6195   3.6613   4.0550   4.0882

[...]

          k = 0.4375-0.2526-0.0484 (   626 PWs)   bands (ev):

    -7.6139  -7.3083  -4.6443  -4.4057   1.3169   1.4008   4.0511   5.5077

     highest occupied level (ev):     7.5159

     Writing config to output data dir /home/bonacc_m/Documents/phonons/example16/TMP_graphite/_ph0/graphite.save/

[...]

     number of k points=   400

     Number of k-points >= 100: set verbosity='high' to print them.

[...]

     Number of k-points >= 100: set verbosity='high' to print the bands.

[...]

      4 Sym.Ops. (no q -> -q+G )

[...]

     Mode symmetry, C_2v (mm2)  point group:

[...]

     freq (   1-   1) =        233.5  [cm-1]   --> B_2  D_4  S_4
     freq (   2-   2) =        286.1  [cm-1]   --> B_2  D_4  S_4
     freq (   3-   3) =        480.2  [cm-1]   --> B_1  D_3  S_3
     freq (   4-   4) =        481.2  [cm-1]   --> B_1  D_3  S_3
     freq (   5-   5) =        797.5  [cm-1]   --> A_1  D_1  S_1
     freq (   6-   6) =        802.1  [cm-1]   --> A_1  D_1  S_1
     freq (   7-   7) =        836.2  [cm-1]   --> B_2  D_4  S_4
     freq (   8-   8) =        841.1  [cm-1]   --> B_2  D_4  S_4
     freq (   9-   9) =       1476.3  [cm-1]   --> B_1  D_3  S_3
     freq (  10-  10) =       1478.4  [cm-1]   --> B_1  D_3  S_3
     freq (  11-  11) =       1590.3  [cm-1]   --> A_1  D_1  S_1
     freq (  12-  12) =       1593.6  [cm-1]   --> A_1  D_1  S_1

[...]

     Mode symmetry, D_2h (mmm)  point group:

[...]

     Mode symmetry, D_2h (mmm)  point group:

     freq (   1-   1) =        507.4  [cm-1]   --> B_1u
     freq (   2-   2) =        521.2  [cm-1]   --> B_3g
     freq (   3-   3) =        638.0  [cm-1]   --> B_1g
     freq (   4-   4) =        638.0  [cm-1]   --> B_3u
     freq (   5-   5) =        654.2  [cm-1]   --> B_3g
     freq (   6-   6) =        659.4  [cm-1]   --> B_1u
     freq (   7-   7) =       1330.5  [cm-1]   --> B_2u
     freq (   8-   8) =       1330.6  [cm-1]   --> A_g
     freq (   9-   9) =       1357.5  [cm-1]   --> A_g
     freq (  10-  10) =       1361.8  [cm-1]   --> B_2u
     freq (  11-  11) =       1401.8  [cm-1]   --> B_1g
     freq (  12-  12) =       1403.5  [cm-1]   --> B_3u

[...]

      9 Sym.Ops. (with q -> -q+G )

[...]

     Representation #  12 mode #  12

[...]

     Mode symmetry, C_2v (mm2)  point group:

     freq (   1-   1) =        424.0  [cm-1]   --> B_2  D_4  S_4
     freq (   2-   2) =        444.4  [cm-1]   --> A_2  D_2  S_2
     freq (   3-   3) =        700.9  [cm-1]   --> A_2  D_2  S_2
     freq (   4-   4) =        701.9  [cm-1]   --> B_2  D_4  S_4
     freq (   5-   5) =        856.4  [cm-1]   --> A_1  D_1  S_1
     freq (   6-   6) =        856.8  [cm-1]   --> B_1  D_3  S_3
     freq (   7-   7) =       1088.1  [cm-1]   --> B_1  D_3  S_3
     freq (   8-   8) =       1091.1  [cm-1]   --> A_1  D_1  S_1
     freq (   9-   9) =       1370.1  [cm-1]   --> A_1  D_1  S_1
     freq (  10-  10) =       1375.4  [cm-1]   --> B_1  D_3  S_3
     freq (  11-  11) =       1417.5  [cm-1]   --> A_1  D_1  S_1
     freq (  12-  12) =       1419.4  [cm-1]   --> B_1  D_3  S_3

     Calculation of q =    0.2500000   0.4330127  -0.1936076

     Using Slab Decomposition

     Title:
     Graphite

     bravais-lattice index     =            4
     lattice parameter (alat)  =       4.6463  a.u.
     unit-cell volume          =     224.3370 (a.u.)^3
     number of atoms/cell      =            4
     number of atomic types    =            1
     number of electrons       =        16.00
     number of Kohn-Sham states=            8
     kinetic-energy cutoff     =      30.0000  Ry
     charge density cutoff     =     180.0000  Ry
     Exchange-correlation= PBE
                           (   1   4   3   4   0   0   0)

[...]

     atomic species   valence    mass     pseudopotential
        C              4.00    12.00000     C ( 1.00)

     24 Sym. Ops., with inversion, found

[...]

     site n.     atom                  positions (alat units)
         1           C   tau(   1) = (   0.0000000   0.0000000   0.0000000  )
         2           C   tau(   2) = (  -0.0000000   0.5773503   0.0000000  )
         3           C   tau(   3) = (   0.0000000   0.0000000   1.2912714  )
         4           C   tau(   4) = (   0.5000000   0.2886751   1.2912714  )

     number of k points=   400

     Number of k-points >= 100: set verbosity='high' to print them.

     The potential is recalculated from file :
     /home/bonacc_m/Documents/phonons/example16/TMP_graphite/_ph0/graphite.save/charge-density

     Starting wfcs are   16 atomic wfcs

     Band Structure Calculation
     Davidson diagonalization with overlap

     ethr =  6.25E-11,  avg # of iterations = 10.5

     End of band structure calculation

     Number of k-points >= 100: set verbosity='high' to print the bands.

     highest occupied level (ev):     7.5159

     Writing config to output data dir /home/bonacc_m/Documents/phonons/example16/TMP_graphite/_ph0/graphite.save/

     Graphite

     bravais-lattice index     =            4
     lattice parameter (alat)  =       4.6463  a.u.
     unit-cell volume          =     224.3370 (a.u.)^3
     number of atoms/cell      =            4
     number of atomic types    =            1
     kinetic-energy cut-off    =      30.0000  Ry
     charge density cut-off    =     180.0000  Ry
     convergence threshold     =      1.0E-16
     beta                      =       0.7000
     number of iterations used =            4
     Exchange-correlation= PBE
                           (   1   4   3   4   0   0   0)

     celldm(1)=    4.64630  celldm(2)=    0.00000  celldm(3)=    2.58254
     celldm(4)=    0.00000  celldm(5)=    0.00000  celldm(6)=    0.00000

     crystal axes: (cart. coord. in units of alat)
               a(1) = (  1.0000  0.0000  0.0000 )
               a(2) = ( -0.5000  0.8660  0.0000 )
               a(3) = (  0.0000  0.0000  2.5825 )

     reciprocal axes: (cart. coord. in units 2 pi/alat)
               b(1) = (  1.0000  0.5774 -0.0000 )
               b(2) = (  0.0000  1.1547  0.0000 )
               b(3) = (  0.0000 -0.0000  0.3872 )

     Atoms inside the unit cell:

     Cartesian axes

     site n.  atom      mass           positions (alat units)
        1     C   12.0000   tau(    1) = (    0.00000    0.00000    0.00000  )
        2     C   12.0000   tau(    2) = (   -0.00000    0.57735    0.00000  )
        3     C   12.0000   tau(    3) = (    0.00000    0.00000    1.29127  )
        4     C   12.0000   tau(    4) = (    0.50000    0.28868    1.29127  )

     Computing dynamical matrix for
                    q = (   0.2500000   0.4330127  -0.1936076 )

      4 Sym.Ops. (no q -> -q+G )

     G cutoff =   98.4301  (   1521 G-vectors)     FFT grid: ( 20, 20, 54)
     G cutoff =   65.6201  (    825 G-vectors)  smooth grid: ( 18, 18, 48)
     number of k points=   400

     PseudoPot. # 1 for C  read from file:
     /home/bonacc_m/Codes/q-e/pseudo/C.pbe-rrkjus.UPF
     MD5 check sum: c9ac5a99bc85b198593446162950cd17
     Pseudo is Ultrasoft, Zval =  4.0
     Generated by new atomic code, or converted to UPF format
     Using radial grid of  627 points,  4 beta functions with:
                l(1) =   0
                l(2) =   0
                l(3) =   1
                l(4) =   1
     Q(r) pseudized with 0 coefficients

     Atomic displacements:
     There are    6 irreducible representations

[...]

     Representation     6      2 modes -  To be done

     Alpha used in Ewald sum =   1.8000

[...]

     Representation #   6 modes #  11  12

     Self-consistent Calculation

[...]

      thresh= 2.627E-09 alpha_mix =  0.700 |ddv_scf|^2 =  6.745E-17

     End of self-consistent calculation

     Convergence has been achieved

     Number of q in the star =    6
     List of q in the star:
          1   0.250000000   0.433012702  -0.193607630
          2  -0.250000000  -0.433012702   0.193607630
          3   0.250000000  -0.433012702  -0.193607630
          4   0.500000000   0.000000000   0.193607630
          5  -0.500000000   0.000000000   0.193607630
          6  -0.250000000   0.433012702   0.193607630

     Diagonalizing the dynamical matrix

     q = (    0.250000000   0.433012702  -0.193607630 )

     freq (    1) =      13.032877 [THz] =     434.729994 [cm-1]
     freq (    2) =      13.032877 [THz] =     434.729994 [cm-1]
     freq (    3) =      21.029358 [THz] =     701.463887 [cm-1]
     freq (    4) =      21.029358 [THz] =     701.463887 [cm-1]
     freq (    5) =      25.680919 [THz] =     856.623246 [cm-1]
     freq (    6) =      25.680919 [THz] =     856.623246 [cm-1]
     freq (    7) =      32.661135 [THz] =    1089.458203 [cm-1]
     freq (    8) =      32.661135 [THz] =    1089.458203 [cm-1]
     freq (    9) =      41.162947 [THz] =    1373.048119 [cm-1]
     freq (   10) =      41.162947 [THz] =    1373.048119 [cm-1]
     freq (   11) =      42.523574 [THz] =    1418.433735 [cm-1]
     freq (   12) =      42.523574 [THz] =    1418.433735 [cm-1]

     General routines

     Parallel routines

     INITIALIZATION:

     DYNAMICAL MATRIX:

      General routines

   This run was terminated on:  16:47:20   2May2024

   JOB DONE.