     Program PWSCF v.7.1 starts on  2May2024 at 16:24:44

     Waiting for input...
     Reading input from standard input

     Current dimensions of program PWSCF are:
     Max number of different atomic species (ntypx) = 10
     Max number of k-points (npk) =  40000
     Max angular momentum in pseudopotentials (lmaxx) =  4
     file C.pbe-rrkjus.UPF: wavefunction(s)  2S 2P renormalized

     R & G space division:  proc/nbgrp/npool/nimage =       6
     Subspace diagonalization in iterative solution of the eigenvalue problem:
     a serial algorithm will be used

     Using Slab Decomposition

     bravais-lattice index     =            4
     lattice parameter (alat)  =       4.6463  a.u.
     unit-cell volume          =     224.3370 (a.u.)^3
     number of atoms/cell      =            4
     number of atomic types    =            1
     number of electrons       =        16.00
     number of Kohn-Sham states=            8
     kinetic-energy cutoff     =      30.0000  Ry
     charge density cutoff     =     180.0000  Ry
     scf convergence threshold =      1.0E-12
     mixing beta               =       0.7000
     number of iterations used =            8  plain     mixing
     Exchange-correlation= SLA  PW   PBE  PBE
                           (   1   4   3   4   0   0   0)

     celldm(1)=   4.646303  celldm(2)=   0.000000  celldm(3)=   2.582543
     celldm(4)=   0.000000  celldm(5)=   0.000000  celldm(6)=   0.000000

     crystal axes: (cart. coord. in units of alat)
               a(1) = (   1.000000   0.000000   0.000000 )
               a(2) = (  -0.500000   0.866025   0.000000 )
               a(3) = (   0.000000   0.000000   2.582543 )

     reciprocal axes: (cart. coord. in units 2 pi/alat)
               b(1) = (  1.000000  0.577350 -0.000000 )
               b(2) = (  0.000000  1.154701  0.000000 )
               b(3) = (  0.000000 -0.000000  0.387215 )

     PseudoPot. # 1 for C  read from file:
     /home/bonacc_m/Codes/q-e/pseudo/C.pbe-rrkjus.UPF
     MD5 check sum: c9ac5a99bc85b198593446162950cd17
     Pseudo is Ultrasoft, Zval =  4.0
     Generated by new atomic code, or converted to UPF format
     Using radial grid of  627 points,  4 beta functions with:
                l(1) =   0
                l(2) =   0
                l(3) =   1
                l(4) =   1
     Q(r) pseudized with 0 coefficients

     atomic species   valence    mass     pseudopotential
        C              4.00    12.00000     C ( 1.00)

     24 Sym. Ops., with inversion, found (12 have fractional translation)

   Cartesian axes

     site n.     atom                  positions (alat units)
         1           C   tau(   1) = (   0.0000000   0.0000000   0.0000000  )
         2           C   tau(   2) = (  -0.0000000   0.5773503   0.0000000  )
         3           C   tau(   3) = (   0.0000000   0.0000000   1.2912714  )
         4           C   tau(   4) = (   0.5000000   0.2886751   1.2912714  )

     number of k points=    40
                       cart. coord. in units 2pi/alat
        k(    1) = (   0.0625000   0.1082532   0.0484019), wk =   0.0312500
        k(    2) = (   0.0625000   0.1082532   0.1452057), wk =   0.0312500
        k(    3) = (   0.0625000   0.2525907   0.0484019), wk =   0.0625000
        k(    4) = (   0.0625000   0.2525907   0.1452057), wk =   0.0625000
        k(    5) = (   0.0625000   0.3969283   0.0484019), wk =   0.0625000
        k(    6) = (   0.0625000   0.3969283   0.1452057), wk =   0.0625000
        k(    7) = (   0.0625000   0.5412659   0.0484019), wk =   0.0625000
        k(    8) = (   0.0625000   0.5412659   0.1452057), wk =   0.0625000
        k(    9) = (   0.0625000  -0.4690971   0.0484019), wk =   0.0625000
        k(   10) = (   0.0625000  -0.4690971   0.1452057), wk =   0.0625000
        k(   11) = (   0.0625000  -0.3247595   0.0484019), wk =   0.0625000
        k(   12) = (   0.0625000  -0.3247595   0.1452057), wk =   0.0625000
        k(   13) = (   0.0625000  -0.1804220   0.0484019), wk =   0.0625000
        k(   14) = (   0.0625000  -0.1804220   0.1452057), wk =   0.0625000
        k(   15) = (   0.0625000  -0.0360844   0.0484019), wk =   0.0312500
        k(   16) = (   0.0625000  -0.0360844   0.1452057), wk =   0.0312500
        k(   17) = (   0.1875000   0.3247595   0.0484019), wk =   0.0312500
        k(   18) = (   0.1875000   0.3247595   0.1452057), wk =   0.0312500
        k(   19) = (   0.1875000   0.4690971   0.0484019), wk =   0.0625000
        k(   20) = (   0.1875000   0.4690971   0.1452057), wk =   0.0625000
        k(   21) = (   0.1875000   0.6134347   0.0484019), wk =   0.0625000
        k(   22) = (   0.1875000   0.6134347   0.1452057), wk =   0.0625000
        k(   23) = (   0.1875000  -0.3969283   0.0484019), wk =   0.0625000
        k(   24) = (   0.1875000  -0.3969283   0.1452057), wk =   0.0625000
        k(   25) = (   0.1875000  -0.2525907   0.0484019), wk =   0.0625000
        k(   26) = (   0.1875000  -0.2525907   0.1452057), wk =   0.0625000
        k(   27) = (   0.1875000  -0.1082532   0.0484019), wk =   0.0312500
        k(   28) = (   0.1875000  -0.1082532   0.1452057), wk =   0.0312500
        k(   29) = (   0.3125000   0.5412659   0.0484019), wk =   0.0312500
        k(   30) = (   0.3125000   0.5412659   0.1452057), wk =   0.0312500
        k(   31) = (   0.3125000   0.6856034   0.0484019), wk =   0.0625000
        k(   32) = (   0.3125000   0.6856034   0.1452057), wk =   0.0625000
        k(   33) = (   0.3125000  -0.3247595   0.0484019), wk =   0.0625000
        k(   34) = (   0.3125000  -0.3247595   0.1452057), wk =   0.0625000
        k(   35) = (   0.3125000  -0.1804220   0.0484019), wk =   0.0312500
        k(   36) = (   0.3125000  -0.1804220   0.1452057), wk =   0.0312500
        k(   37) = (   0.4375000   0.7577722   0.0484019), wk =   0.0312500
        k(   38) = (   0.4375000   0.7577722   0.1452057), wk =   0.0312500
        k(   39) = (   0.4375000  -0.2525907   0.0484019), wk =   0.0312500
        k(   40) = (   0.4375000  -0.2525907   0.1452057), wk =   0.0312500

     Initial potential from superposition of free atoms

     starting charge      15.9998, renormalised to      16.0000
     Starting wfcs are   16 randomized atomic wfcs

     Self-consistent Calculation

     iteration #  1     ecut=    30.00 Ry     beta= 0.70
     Davidson diagonalization with overlap
     ethr =  1.00E-02,  avg # of iterations =  2.0

     total energy              =     -45.52848595 Ry
     estimated scf accuracy    <       0.36934352 Ry

[...]

     total energy              =     -45.57245152 Ry
     estimated scf accuracy    <          7.1E-12 Ry

     iteration # 11     ecut=    30.00 Ry     beta= 0.70
     Davidson diagonalization with overlap
     ethr =  1.00E-13,  avg # of iterations =  2.5

     End of self-consistent calculation

          k = 0.0625 0.1083 0.0484 (   600 PWs)   bands (ev):

   -11.7683 -11.3568  -0.7009   1.6374   3.6195   3.6613   4.0550   4.0882

[...]

          k = 0.4375-0.2526 0.1452 (   623 PWs)   bands (ev):

    -7.5280  -7.4015  -4.5777  -4.4789   1.3412   1.3760   4.4791   5.0912

     highest occupied level (ev):     7.5159

!    total energy              =     -45.57245152 Ry
     estimated scf accuracy    <          5.0E-13 Ry

     The total energy is the sum of the following terms:
     one-electron contribution =      -7.07251490 Ry
     hartree contribution      =      11.84820263 Ry
     xc contribution           =     -14.07896184 Ry
     ewald contribution        =     -36.26917740 Ry

     convergence has been achieved in  11 iterations

     Writing all to output data dir /home/bonacc_m/Documents/phonons/example16/TMP_graphite/graphite.save/

     General routines

     Parallel routines

   This run was terminated on:  16:24:46   2May2024

   JOB DONE.