     Program PHONON v.7.1 starts on  2May2024 at 17:12:49

     R & G space division:  proc/nbgrp/npool/nimage =      12

     Reading input from GaAs.ph.in

     Reading xml data from directory:

     /home/bonacc_m/Documents/phonons/GaAs_NAC/TMP_GaAs/GaAs.save/

     IMPORTANT: XC functional enforced from input :
     Exchange-correlation= PBE
                           (   1   4   3   4   0   0   0)
     Any further DFT definition will be discarded
     Please, verify this is what you really want

     Using Slab Decomposition

     Reading collected, re-writing distributed wavefunctions

     Dynamical matrices for ( 4, 4, 4)  uniform grid of q-points
     (   8 q-points):
       N         xq(1)         xq(2)         xq(3)
       1   0.000000000   0.000000000   0.000000000
       2  -0.250000000   0.250000000  -0.250000000
       3   0.500000000  -0.500000000   0.500000000
       4   0.000000000   0.500000000   0.000000000
       5   0.750000000  -0.250000000   0.750000000
       6   0.500000000   0.000000000   0.500000000
       7   0.000000000  -1.000000000   0.000000000
       8  -0.500000000  -1.000000000   0.000000000

     Calculation of q =    0.0000000   0.0000000   0.0000000

     GaAs

     bravais-lattice index     =            2
     lattice parameter (alat)  =      10.8615  a.u.
     unit-cell volume          =     320.3354 (a.u.)^3
     number of atoms/cell      =            2
     number of atomic types    =            2
     kinetic-energy cut-off    =      80.0000  Ry
     charge density cut-off    =     640.0000  Ry
     convergence threshold     =      1.0E-13
     beta                      =       0.7000
     number of iterations used =            4
     Exchange-correlation= PBE
                           (   1   4   3   4   0   0   0)

     celldm(1)=   10.86146  celldm(2)=    0.00000  celldm(3)=    0.00000
     celldm(4)=    0.00000  celldm(5)=    0.00000  celldm(6)=    0.00000

     crystal axes: (cart. coord. in units of alat)
               a(1) = ( -0.5000  0.0000  0.5000 )
               a(2) = (  0.0000  0.5000  0.5000 )
               a(3) = ( -0.5000  0.5000  0.0000 )

     reciprocal axes: (cart. coord. in units 2 pi/alat)
               b(1) = ( -1.0000 -1.0000  1.0000 )
               b(2) = (  1.0000  1.0000  1.0000 )
               b(3) = ( -1.0000  1.0000 -1.0000 )

     Atoms inside the unit cell:

     Cartesian axes

     site n.  atom      mass           positions (alat units)
        1     Ga  69.7230   tau(    1) = (    0.00000    0.00000    0.00000  )
        2     As  74.9216   tau(    2) = (    0.25000    0.25000    0.25000  )

     Computing dynamical matrix for
                    q = (   0.0000000   0.0000000   0.0000000 )

     25 Sym.Ops. (with q -> -q+G )

     G cutoff = 1912.4796  (   7302 G-vectors)     FFT grid: ( 64, 64, 64)
     G cutoff =  956.2398  (   2577 G-vectors)  smooth grid: ( 45, 45, 45)
     number of k points=    60

     PseudoPot. # 1 for Ga read from file:
     /home/bonacc_m/Downloads/sg15_oncv_upf_2020-02-06/Ga_ONCV_PBE-1.2.upf
     MD5 check sum: 9961a622ff199abf6dfec9a0a10b8555
     Pseudo is Norm-conserving, Zval = 13.0
     Generated using ONCVPSP code by D. R. Hamann
     Using radial grid of  602 points,  6 beta functions with:
                l(1) =   0
                l(2) =   0
                l(3) =   1
                l(4) =   1
                l(5) =   2
                l(6) =   2

     PseudoPot. # 2 for As read from file:
     /home/bonacc_m/Downloads/sg15_oncv_upf_2020-02-06/As_ONCV_PBE-1.2.upf
     MD5 check sum: a2ff92a4799c87c945fff9e6739df4dd
     Pseudo is Norm-conserving, Zval =  5.0
     Generated using ONCVPSP code by D. R. Hamann
     Using radial grid of  602 points,  6 beta functions with:
                l(1) =   0
                l(2) =   0
                l(3) =   1
                l(4) =   1
                l(5) =   2
                l(6) =   2

     Mode symmetry, T_d (-43m)  point group:

     Electric field:
     Dielectric constant
     Born effective charges in two ways

     Atomic displacements:
     There are    2 irreducible representations

     Representation     1      3 modes -  To be done

[...]

     Alpha used in Ewald sum =   2.8000

     Electric Fields Calculation

      thresh= 1.000E-02 alpha_mix =  0.700 |ddv_scf|^2 =  2.089E-08

[...]

     End of electric fields calculation

          Dielectric constant in cartesian axis

          (      15.249914285      -0.000000000      -0.000000000 )
          (      -0.000000000      15.249914285      -0.000000000 )
          (      -0.000000000      -0.000000000      15.249914285 )

          Effective charges (d Force / dE) in cartesian axis without acoustic sum rule applied (asr)

           atom      1   Ga Mean Z*:        2.20458
      Ex  (        2.20458        0.00000        0.00000 )
      Ey  (        0.00000        2.20458        0.00000 )
      Ez  (        0.00000        0.00000        2.20458 )
           atom      2   As Mean Z*:       -2.21599
      Ex  (       -2.21599        0.00000       -0.00000 )
      Ey  (        0.00000       -2.21599       -0.00000 )
      Ez  (       -0.00000        0.00000       -2.21599 )

          Effective charges Sum: Mean:       -0.01140
             -0.01140        0.00000       -0.00000
              0.00000       -0.01140        0.00000
             -0.00000       -0.00000       -0.01140

          Effective charges (d Force / dE) in cartesian axis with asr applied:
           atom      1   Ga Mean Z*:        2.21029
      E*x (        2.21029       -0.00000        0.00000 )
      E*y (       -0.00000        2.21029        0.00000 )
      E*z (        0.00000       -0.00000        2.21029 )
           atom      2   As Mean Z*:       -2.21029
      E*x (       -2.21029        0.00000       -0.00000 )
      E*y (        0.00000       -2.21029       -0.00000 )
      E*z (       -0.00000        0.00000       -2.21029 )

     Representation #   1 modes #   1   2   3

     Self-consistent Calculation

[...]

     End of self-consistent calculation

     Convergence has been achieved

[...]

     Number of q in the star =    1
     List of q in the star:
          1   0.000000000   0.000000000   0.000000000

          Dielectric constant in cartesian axis

          (      15.249914285      -0.000000000      -0.000000000 )
          (      -0.000000000      15.249914285      -0.000000000 )
          (      -0.000000000      -0.000000000      15.249914285 )

          Effective charges (d Force / dE) in cartesian axis without acoustic sum rule applied (asr)

           atom      1   Ga Mean Z*:        2.20458
      Ex  (        2.20458        0.00000        0.00000 )
      Ey  (        0.00000        2.20458        0.00000 )
      Ez  (        0.00000        0.00000        2.20458 )
           atom      2   As Mean Z*:       -2.21599
      Ex  (       -2.21599        0.00000       -0.00000 )
      Ey  (        0.00000       -2.21599       -0.00000 )
      Ez  (       -0.00000        0.00000       -2.21599 )

          Effective charges Sum: Mean:       -0.01140
             -0.01140        0.00000       -0.00000
              0.00000       -0.01140        0.00000
             -0.00000       -0.00000       -0.01140

          Effective charges (d Force / dE) in cartesian axis with asr applied:
           atom      1   Ga Mean Z*:        2.21029
      E*x (        2.21029       -0.00000        0.00000 )
      E*y (       -0.00000        2.21029        0.00000 )
      E*z (        0.00000       -0.00000        2.21029 )
           atom      2   As Mean Z*:       -2.21029
      E*x (       -2.21029        0.00000       -0.00000 )
      E*y (        0.00000       -2.21029       -0.00000 )
      E*z (       -0.00000        0.00000       -2.21029 )

          Effective charges (d P / du) in cartesian axis

           atom      1   Ga
      Px  (        2.20929       -0.00000        0.00000 )
      Py  (        0.00000        2.20929        0.00000 )
      Pz  (       -0.00000        0.00000        2.20929 )
           atom      2   As
      Px  (       -2.21607       -0.00000       -0.00000 )
      Py  (       -0.00000       -2.21607       -0.00000 )
      Pz  (       -0.00000       -0.00000       -2.21607 )

     Diagonalizing the dynamical matrix

     q = (    0.000000000   0.000000000   0.000000000 )

     freq (    1) =       1.109204 [THz] =      36.999072 [cm-1]
     freq (    2) =       1.109204 [THz] =      36.999072 [cm-1]
     freq (    3) =       1.109204 [THz] =      36.999072 [cm-1]
     freq (    4) =       7.739496 [THz] =     258.161799 [cm-1]
     freq (    5) =       7.739496 [THz] =     258.161799 [cm-1]
     freq (    6) =       7.739496 [THz] =     258.161799 [cm-1]

     Mode symmetry, T_d (-43m)  point group:

     freq (   1-   3) =         37.0  [cm-1]   --> T_2  G_15 P_4   I+R
     freq (   4-   6) =        258.2  [cm-1]   --> T_2  G_15 P_4   I+R

     Calculation of q =   -0.2500000   0.2500000  -0.2500000
     Subspace diagonalization in iterative solution of the eigenvalue problem:
     a serial algorithm will be used

[...]

     Title:
     GaAs

     bravais-lattice index     =            2
     lattice parameter (alat)  =      10.8615  a.u.
     unit-cell volume          =     320.3354 (a.u.)^3
     number of atoms/cell      =            2
     number of atomic types    =            2
     number of electrons       =        18.00
     number of Kohn-Sham states=            9
     kinetic-energy cutoff     =      80.0000  Ry
     charge density cutoff     =     640.0000  Ry
     Exchange-correlation= PBE
                           (   1   4   3   4   0   0   0)

[...]

     atomic species   valence    mass     pseudopotential
        Ga            13.00    69.72300     Ga( 1.00)
        As             5.00    74.92159     As( 1.00)

     24 Sym. Ops. (no inversion) found

[...]

     site n.     atom                  positions (alat units)
         1           Ga  tau(   1) = (   0.0000000   0.0000000   0.0000000  )
         2           As  tau(   2) = (   0.2500000   0.2500000   0.2500000  )

     number of k points=   816

     Number of k-points >= 100: set verbosity='high' to print them.

     The potential is recalculated from file :
     /home/bonacc_m/Documents/phonons/GaAs_NAC/TMP_GaAs/_ph0/GaAs.save/charge-density

     Starting wfcs are    0 atomic +    9 random wfcs

     Band Structure Calculation
     Davidson diagonalization with overlap

     ethr =  5.56E-11,  avg # of iterations = 18.2

     End of band structure calculation

     Number of k-points >= 100: set verbosity='high' to print the bands.

     highest occupied level (ev):     6.5335

     Writing config to output data dir /home/bonacc_m/Documents/phonons/GaAs_NAC/TMP_GaAs/_ph0/GaAs.save/

[...]

      6 Sym.Ops. (no q -> -q+G )

[...]

     Mode symmetry, C_3v (3m)   point group:

[...]

     Representation #   1 mode #   1

[...]

     Number of q in the star =    4
     List of q in the star:
          1  -0.250000000   0.250000000  -0.250000000
          2   0.250000000  -0.250000000  -0.250000000
          3  -0.250000000  -0.250000000   0.250000000
          4   0.250000000   0.250000000   0.250000000
     In addition there is the -q list:
          1   0.250000000  -0.250000000   0.250000000
          2  -0.250000000   0.250000000   0.250000000
          3   0.250000000   0.250000000  -0.250000000
          4  -0.250000000  -0.250000000  -0.250000000

[...]

     freq (   1-   2) =         52.2  [cm-1]   --> E    L_3
     freq (   3-   3) =        122.2  [cm-1]   --> A_1  L_1
     freq (   4-   5) =        248.2  [cm-1]   --> E    L_3
     freq (   6-   6) =        258.7  [cm-1]   --> A_1  L_1

[...]

     Mode symmetry, C_3v (3m)   point group:

     freq (   1-   2) =         61.0  [cm-1]   --> E    L_3
     freq (   3-   3) =        199.3  [cm-1]   --> A_1  L_1
     freq (   4-   4) =        219.6  [cm-1]   --> A_1  L_1
     freq (   5-   6) =        247.0  [cm-1]   --> E    L_3

[...]

     Mode symmetry, C_2v (mm2)  point group:

[...]

     Mode symmetry, C_2v (mm2)  point group:

     freq (   1-   1) =         69.3  [cm-1]   --> B_1  D_3  S_3
     freq (   2-   2) =         69.3  [cm-1]   --> B_2  D_4  S_4
     freq (   3-   3) =        124.5  [cm-1]   --> A_1  D_1  S_1
     freq (   4-   4) =        239.7  [cm-1]   --> B_1  D_3  S_3
     freq (   5-   5) =        239.7  [cm-1]   --> B_2  D_4  S_4
     freq (   6-   6) =        261.5  [cm-1]   --> A_1  D_1  S_1

[...]

     Mode symmetry, C_s (m)     point group:

[...]

     Number of q in the star =   12
     List of q in the star:
          1   0.750000000  -0.250000000   0.750000000
          2  -0.750000000  -0.250000000  -0.750000000
          3   0.250000000  -0.750000000   0.750000000
          4  -0.750000000   0.250000000   0.750000000
          5   0.750000000   0.250000000  -0.750000000
          6   0.750000000   0.750000000  -0.250000000
          7  -0.750000000  -0.750000000  -0.250000000
          8  -0.750000000   0.750000000   0.250000000
          9  -0.250000000   0.750000000   0.750000000
         10   0.250000000   0.750000000  -0.750000000
         11  -0.250000000  -0.750000000  -0.750000000
         12   0.750000000  -0.750000000   0.250000000
     In addition there is the -q list:
          1  -0.750000000   0.250000000  -0.750000000
          2   0.750000000   0.250000000   0.750000000
          3  -0.250000000   0.750000000  -0.750000000
          4   0.750000000  -0.250000000  -0.750000000
          5  -0.750000000  -0.250000000   0.750000000
          6  -0.750000000  -0.750000000   0.250000000
          7   0.750000000   0.750000000   0.250000000
          8   0.750000000  -0.750000000  -0.250000000
          9   0.250000000  -0.750000000  -0.750000000
         10  -0.250000000  -0.750000000   0.750000000
         11   0.250000000   0.750000000   0.750000000
         12  -0.750000000   0.750000000  -0.250000000

[...]

     freq (   1-   1) =         76.6  [cm-1]   --> A''
     freq (   2-   2) =         96.6  [cm-1]   --> A'
     freq (   3-   3) =        169.2  [cm-1]   --> A'
     freq (   4-   4) =        219.6  [cm-1]   --> A'
     freq (   5-   5) =        238.0  [cm-1]   --> A''
     freq (   6-   6) =        248.9  [cm-1]   --> A'

[...]

     Mode symmetry, C_s (m)     point group:

     freq (   1-   1) =         73.6  [cm-1]   --> A''
     freq (   2-   2) =         95.7  [cm-1]   --> A'
     freq (   3-   3) =        151.2  [cm-1]   --> A'
     freq (   4-   4) =        220.6  [cm-1]   --> A'
     freq (   5-   5) =        240.5  [cm-1]   --> A''
     freq (   6-   6) =        253.9  [cm-1]   --> A'

[...]

      9 Sym.Ops. (with q -> -q+G )

[...]

     Mode symmetry, D_2d (-42m) point group:

[...]

     Representation #   4 modes #   5   6

[...]

     Mode symmetry, D_2d (-42m) point group:

     freq (   1-   2) =         77.0  [cm-1]   --> E    X_5  W_3
     freq (   3-   3) =        207.7  [cm-1]   --> A_1  X_1  W_1
     freq (   4-   4) =        224.4  [cm-1]   --> B_2  X_3  W_2
     freq (   5-   6) =        235.7  [cm-1]   --> E    X_5  W_3

     Calculation of q =   -0.5000000  -1.0000000   0.0000000

     Using Slab Decomposition

     Title:
     GaAs

     bravais-lattice index     =            2
     lattice parameter (alat)  =      10.8615  a.u.
     unit-cell volume          =     320.3354 (a.u.)^3
     number of atoms/cell      =            2
     number of atomic types    =            2
     number of electrons       =        18.00
     number of Kohn-Sham states=            9
     kinetic-energy cutoff     =      80.0000  Ry
     charge density cutoff     =     640.0000  Ry
     Exchange-correlation= PBE
                           (   1   4   3   4   0   0   0)

[...]

     atomic species   valence    mass     pseudopotential
        Ga            13.00    69.72300     Ga( 1.00)
        As             5.00    74.92159     As( 1.00)

     24 Sym. Ops. (no inversion) found

[...]

     site n.     atom                  positions (alat units)
         1           Ga  tau(   1) = (   0.0000000   0.0000000   0.0000000  )
         2           As  tau(   2) = (   0.2500000   0.2500000   0.2500000  )

     number of k points=  1024

     Number of k-points >= 100: set verbosity='high' to print them.

     The potential is recalculated from file :
     /home/bonacc_m/Documents/phonons/GaAs_NAC/TMP_GaAs/_ph0/GaAs.save/charge-density

     Starting wfcs are    0 atomic +    9 random wfcs

     Band Structure Calculation
     Davidson diagonalization with overlap

     ethr =  5.56E-11,  avg # of iterations = 18.0

     End of band structure calculation

     Number of k-points >= 100: set verbosity='high' to print the bands.

     highest occupied level (ev):     6.5335

     Writing config to output data dir /home/bonacc_m/Documents/phonons/GaAs_NAC/TMP_GaAs/_ph0/GaAs.save/

     GaAs

     bravais-lattice index     =            2
     lattice parameter (alat)  =      10.8615  a.u.
     unit-cell volume          =     320.3354 (a.u.)^3
     number of atoms/cell      =            2
     number of atomic types    =            2
     kinetic-energy cut-off    =      80.0000  Ry
     charge density cut-off    =     640.0000  Ry
     convergence threshold     =      1.0E-13
     beta                      =       0.7000
     number of iterations used =            4
     Exchange-correlation= PBE
                           (   1   4   3   4   0   0   0)

     celldm(1)=   10.86146  celldm(2)=    0.00000  celldm(3)=    0.00000
     celldm(4)=    0.00000  celldm(5)=    0.00000  celldm(6)=    0.00000

     crystal axes: (cart. coord. in units of alat)
               a(1) = ( -0.5000  0.0000  0.5000 )
               a(2) = (  0.0000  0.5000  0.5000 )
               a(3) = ( -0.5000  0.5000  0.0000 )

     reciprocal axes: (cart. coord. in units 2 pi/alat)
               b(1) = ( -1.0000 -1.0000  1.0000 )
               b(2) = (  1.0000  1.0000  1.0000 )
               b(3) = ( -1.0000  1.0000 -1.0000 )

     Atoms inside the unit cell:

     Cartesian axes

     site n.  atom      mass           positions (alat units)
        1     Ga  69.7230   tau(    1) = (    0.00000    0.00000    0.00000  )
        2     As  74.9216   tau(    2) = (    0.25000    0.25000    0.25000  )

     Computing dynamical matrix for
                    q = (  -0.5000000  -1.0000000   0.0000000 )

      4 Sym.Ops. (no q -> -q+G )

     G cutoff = 1912.4796  (   7302 G-vectors)     FFT grid: ( 64, 64, 64)
     G cutoff =  956.2398  (   2577 G-vectors)  smooth grid: ( 45, 45, 45)
     number of k points=  1024

     PseudoPot. # 1 for Ga read from file:
     /home/bonacc_m/Downloads/sg15_oncv_upf_2020-02-06/Ga_ONCV_PBE-1.2.upf
     MD5 check sum: 9961a622ff199abf6dfec9a0a10b8555
     Pseudo is Norm-conserving, Zval = 13.0
     Generated using ONCVPSP code by D. R. Hamann
     Using radial grid of  602 points,  6 beta functions with:
                l(1) =   0
                l(2) =   0
                l(3) =   1
                l(4) =   1
                l(5) =   2
                l(6) =   2

     PseudoPot. # 2 for As read from file:
     /home/bonacc_m/Downloads/sg15_oncv_upf_2020-02-06/As_ONCV_PBE-1.2.upf
     MD5 check sum: a2ff92a4799c87c945fff9e6739df4dd
     Pseudo is Norm-conserving, Zval =  5.0
     Generated using ONCVPSP code by D. R. Hamann
     Using radial grid of  602 points,  6 beta functions with:
                l(1) =   0
                l(2) =   0
                l(3) =   1
                l(4) =   1
                l(5) =   2
                l(6) =   2

     Mode symmetry, S_4 (-4)    point group:

     Atomic displacements:
     There are    6 irreducible representations

[...]

     Representation     6      1 modes -  To be done

     Alpha used in Ewald sum =   2.8000

[...]

     Representation #   6 mode #   6

     Self-consistent Calculation

[...]

      thresh= 5.129E-08 alpha_mix =  0.700 |ddv_scf|^2 =  6.915E-15

     End of self-consistent calculation

     Convergence has been achieved

     Number of q in the star =    6
     List of q in the star:
          1  -0.500000000  -1.000000000   0.000000000
          2   0.000000000   1.000000000  -0.500000000
          3   0.000000000   1.000000000   0.500000000
          4   0.500000000   1.000000000   0.000000000
          5   0.000000000  -0.500000000  -1.000000000
          6   0.000000000   0.500000000  -1.000000000

     Diagonalizing the dynamical matrix

     q = (   -0.500000000  -1.000000000   0.000000000 )

     freq (    1) =       2.726916 [THz] =      90.960111 [cm-1]
     freq (    2) =       3.073001 [THz] =     102.504266 [cm-1]
     freq (    3) =       5.542760 [THz] =     184.886582 [cm-1]
     freq (    4) =       5.792262 [THz] =     193.209054 [cm-1]
     freq (    5) =       7.066818 [THz] =     235.723682 [cm-1]
     freq (    6) =       7.424153 [THz] =     247.643103 [cm-1]

     Mode symmetry, S_4 (-4)    point group:

     freq (   1-   1) =         91.0  [cm-1]   --> B    W_3
     freq (   2-   2) =        102.5  [cm-1]   --> E    W_4
     freq (   3-   3) =        184.9  [cm-1]   --> A    W_1
     freq (   4-   4) =        193.2  [cm-1]   --> E*   W_2
     freq (   5-   5) =        235.7  [cm-1]   --> E    W_4
     freq (   6-   6) =        247.6  [cm-1]   --> B    W_3

     General routines

     Parallel routines

     INITIALIZATION:

     DYNAMICAL MATRIX:

      General routines

   This run was terminated on:  19:51:37   2May2024

   JOB DONE.