     Program PHONON v.7.1 starts on  2May2024 at 16:55:56

     R & G space division:  proc/nbgrp/npool/nimage =      12

     Reading input from C.ph.in

     Reading xml data from directory:

     /home/bonacc_m/Documents/phonons/diamond/TMP_diamond/diamond.save/

     IMPORTANT: XC functional enforced from input :
     Exchange-correlation= PZ
                           (   1   1   0   0   0   0   0)
     Any further DFT definition will be discarded
     Please, verify this is what you really want

     Using Slab Decomposition

     Reading collected, re-writing distributed wavefunctions

     Dynamical matrices for ( 4, 4, 4)  uniform grid of q-points
     (   8 q-points):
       N         xq(1)         xq(2)         xq(3)
       1   0.000000000   0.000000000   0.000000000
       2  -0.250000000   0.250000000  -0.250000000
       3   0.500000000  -0.500000000   0.500000000
       4   0.000000000   0.500000000   0.000000000
       5   0.750000000  -0.250000000   0.750000000
       6   0.500000000   0.000000000   0.500000000
       7   0.000000000  -1.000000000   0.000000000
       8  -0.500000000  -1.000000000   0.000000000

     Calculation of q =    0.0000000   0.0000000   0.0000000

     diamond

     bravais-lattice index     =            2
     lattice parameter (alat)  =       6.6000  a.u.
     unit-cell volume          =      71.8740 (a.u.)^3
     number of atoms/cell      =            2
     number of atomic types    =            1
     kinetic-energy cut-off    =     110.0000  Ry
     charge density cut-off    =     440.0000  Ry
     convergence threshold     =      1.0E-14
     beta                      =       0.7000
     number of iterations used =            4
     Exchange-correlation= PZ
                           (   1   1   0   0   0   0   0)

     celldm(1)=    6.60000  celldm(2)=    0.00000  celldm(3)=    0.00000
     celldm(4)=    0.00000  celldm(5)=    0.00000  celldm(6)=    0.00000

     crystal axes: (cart. coord. in units of alat)
               a(1) = ( -0.5000  0.0000  0.5000 )
               a(2) = (  0.0000  0.5000  0.5000 )
               a(3) = ( -0.5000  0.5000  0.0000 )

     reciprocal axes: (cart. coord. in units 2 pi/alat)
               b(1) = ( -1.0000 -1.0000  1.0000 )
               b(2) = (  1.0000  1.0000  1.0000 )
               b(3) = ( -1.0000  1.0000 -1.0000 )

     Atoms inside the unit cell:

     Cartesian axes

     site n.  atom      mass           positions (alat units)
        1     C   12.0110   tau(    1) = (    0.00000    0.00000    0.00000  )
        2     C   12.0110   tau(    2) = (    0.25000    0.25000    0.25000  )

     Computing dynamical matrix for
                    q = (   0.0000000   0.0000000   0.0000000 )

     49 Sym.Ops. (with q -> -q+G )

     G cutoff =  485.4906  (    933 G-vectors)     FFT grid: ( 32, 32, 32)
     number of k points=    60

     PseudoPot. # 1 for C  read from file:
     ./C.pz-vbc.UPF
     MD5 check sum: f697e42eaa1e52b77fcf7925dd36a1dd
     Pseudo is Norm-conserving, Zval =  4.0
     Generated by new atomic code, or converted to UPF format
     Using radial grid of  269 points,  1 beta functions with:
                l(1) =   0

     Mode symmetry, O_h (m-3m)  point group:

     Electric field:
     Dielectric constant
     Born effective charges in two ways

     Atomic displacements:
     There are    2 irreducible representations

     Representation     1      3 modes -  To be done

[...]

     Alpha used in Ewald sum =   2.8000

     Electric Fields Calculation

      thresh= 1.000E-02 alpha_mix =  0.700 |ddv_scf|^2 =  1.077E-08

[...]

     End of electric fields calculation

          Dielectric constant in cartesian axis

          (       5.685455892      -0.000000000      -0.000000000 )
          (      -0.000000000       5.685455892       0.000000000 )
          (      -0.000000000       0.000000000       5.685455892 )

          Effective charges (d Force / dE) in cartesian axis without acoustic sum rule applied (asr)

           atom      1   C  Mean Z*:        0.00031
      Ex  (        0.00031       -0.00000       -0.00000 )
      Ey  (       -0.00000        0.00031        0.00000 )
      Ez  (       -0.00000        0.00000        0.00031 )
           atom      2   C  Mean Z*:        0.00031
      Ex  (        0.00031       -0.00000       -0.00000 )
      Ey  (       -0.00000        0.00031        0.00000 )
      Ez  (       -0.00000        0.00000        0.00031 )

          Effective charges Sum: Mean:        0.00063
              0.00063       -0.00000       -0.00000
             -0.00000        0.00063        0.00000
             -0.00000        0.00000        0.00063

          Effective charges (d Force / dE) in cartesian axis with asr applied:
           atom      1   C  Mean Z*:       -0.00000
      E*x (       -0.00000        0.00000       -0.00000 )
      E*y (        0.00000       -0.00000        0.00000 )
      E*z (        0.00000        0.00000       -0.00000 )
           atom      2   C  Mean Z*:        0.00000
      E*x (        0.00000       -0.00000        0.00000 )
      E*y (       -0.00000        0.00000       -0.00000 )
      E*z (        0.00000       -0.00000        0.00000 )

     Representation #   1 modes #   1   2   3

     Self-consistent Calculation

[...]

     End of self-consistent calculation

     Convergence has been achieved

[...]

     Number of q in the star =    1
     List of q in the star:
          1   0.000000000   0.000000000   0.000000000

          Dielectric constant in cartesian axis

          (       5.685455892      -0.000000000      -0.000000000 )
          (      -0.000000000       5.685455892       0.000000000 )
          (      -0.000000000       0.000000000       5.685455892 )

          Effective charges (d Force / dE) in cartesian axis without acoustic sum rule applied (asr)

           atom      1   C  Mean Z*:        0.00031
      Ex  (        0.00031       -0.00000       -0.00000 )
      Ey  (       -0.00000        0.00031        0.00000 )
      Ez  (       -0.00000        0.00000        0.00031 )
           atom      2   C  Mean Z*:        0.00031
      Ex  (        0.00031       -0.00000       -0.00000 )
      Ey  (       -0.00000        0.00031        0.00000 )
      Ez  (       -0.00000        0.00000        0.00031 )

          Effective charges Sum: Mean:        0.00063
              0.00063       -0.00000       -0.00000
             -0.00000        0.00063        0.00000
             -0.00000        0.00000        0.00063

          Effective charges (d Force / dE) in cartesian axis with asr applied:
           atom      1   C  Mean Z*:       -0.00000
      E*x (       -0.00000        0.00000       -0.00000 )
      E*y (        0.00000       -0.00000        0.00000 )
      E*z (        0.00000        0.00000       -0.00000 )
           atom      2   C  Mean Z*:        0.00000
      E*x (        0.00000       -0.00000        0.00000 )
      E*y (       -0.00000        0.00000       -0.00000 )
      E*z (        0.00000       -0.00000        0.00000 )

          Effective charges (d P / du) in cartesian axis

           atom      1   C
      Px  (        0.00056       -0.00000       -0.00000 )
      Py  (        0.00000        0.00056       -0.00000 )
      Pz  (       -0.00000       -0.00000        0.00056 )
           atom      2   C
      Px  (        0.00056       -0.00000       -0.00000 )
      Py  (       -0.00000        0.00056        0.00000 )
      Pz  (        0.00000       -0.00000        0.00056 )

     Diagonalizing the dynamical matrix

     q = (    0.000000000   0.000000000   0.000000000 )

     freq (    1) =       0.715965 [THz] =      23.882037 [cm-1]
     freq (    2) =       0.715965 [THz] =      23.882037 [cm-1]
     freq (    3) =       0.715965 [THz] =      23.882037 [cm-1]
     freq (    4) =      41.163460 [THz] =    1373.065243 [cm-1]
     freq (    5) =      41.163460 [THz] =    1373.065243 [cm-1]
     freq (    6) =      41.163460 [THz] =    1373.065243 [cm-1]

     Mode symmetry, O_h (m-3m)  point group:

     freq (   1-   3) =         23.9  [cm-1]   --> T_1u G_15  G_4- I
     freq (   4-   6) =       1373.1  [cm-1]   --> T_2g G_25' G_5+ R

     Calculation of q =   -0.2500000   0.2500000  -0.2500000
     Subspace diagonalization in iterative solution of the eigenvalue problem:
     a serial algorithm will be used

[...]

     Title:
     diamond

     bravais-lattice index     =            2
     lattice parameter (alat)  =       6.6000  a.u.
     unit-cell volume          =      71.8740 (a.u.)^3
     number of atoms/cell      =            2
     number of atomic types    =            1
     number of electrons       =         8.00
     number of Kohn-Sham states=            4
     kinetic-energy cutoff     =     110.0000  Ry
     charge density cutoff     =     440.0000  Ry
     Exchange-correlation= PZ
                           (   1   1   0   0   0   0   0)

[...]

     atomic species   valence    mass     pseudopotential
        C              4.00    12.01100     C ( 1.00)

     48 Sym. Ops., with inversion, found

[...]

     site n.     atom                  positions (alat units)
         1           C   tau(   1) = (   0.0000000   0.0000000   0.0000000  )
         2           C   tau(   2) = (   0.2500000   0.2500000   0.2500000  )

     number of k points=   816

     Number of k-points >= 100: set verbosity='high' to print them.

     The potential is recalculated from file :
     /home/bonacc_m/Documents/phonons/diamond/TMP_diamond/_ph0/diamond.save/charge-density

     Starting wfcs are    8 atomic wfcs

     Band Structure Calculation
     Davidson diagonalization with overlap

     ethr =  1.25E-10,  avg # of iterations =  9.4

     End of band structure calculation

     Number of k-points >= 100: set verbosity='high' to print the bands.

     highest occupied level (ev):    14.0967

     Writing config to output data dir /home/bonacc_m/Documents/phonons/diamond/TMP_diamond/_ph0/diamond.save/

[...]

      6 Sym.Ops. (no q -> -q+G )

[...]

     Mode symmetry, C_3v (3m)   point group:

[...]

     Representation #   1 mode #   1

[...]

     Mode symmetry, C_3v (3m)   point group:

     freq (   1-   2) =        420.7  [cm-1]   --> E    L_3
     freq (   3-   3) =        733.7  [cm-1]   --> A_1  L_1
     freq (   4-   5) =       1320.8  [cm-1]   --> E    L_3
     freq (   6-   6) =       1377.4  [cm-1]   --> A_1  L_1

[...]

     Mode symmetry, C_4v (4mm)  point group:

[...]

     Mode symmetry, C_4v (4mm)  point group:

     freq (   1-   2) =        553.2  [cm-1]   --> E    G_5 D_5
     freq (   3-   3) =        785.7  [cm-1]   --> A_1  G_1 D_1
     freq (   4-   5) =       1276.1  [cm-1]   --> E    G_5 D_5
     freq (   6-   6) =       1391.5  [cm-1]   --> B_2  G_4 D_2'

[...]

     Mode symmetry, C_s (m)     point group:

[...]

     Mode symmetry, C_s (m)     point group:

     freq (   1-   1) =        699.3  [cm-1]   --> A''
     freq (   2-   2) =        856.0  [cm-1]   --> A'
     freq (   3-   3) =       1020.0  [cm-1]   --> A'
     freq (   4-   4) =       1210.8  [cm-1]   --> A''
     freq (   5-   5) =       1222.1  [cm-1]   --> A'
     freq (   6-   6) =       1309.7  [cm-1]   --> A'

[...]

     Mode symmetry, C_2v (mm2)  point group:

[...]

     Representation #   6 mode #   6

[...]

     Mode symmetry, C_2v (mm2)  point group:

     freq (   1-   1) =        633.5  [cm-1]   --> B_1  D_3  S_3
     freq (   2-   2) =        808.7  [cm-1]   --> B_2  D_4  S_4
     freq (   3-   3) =        907.9  [cm-1]   --> A_1  D_1  S_1
     freq (   4-   4) =       1236.4  [cm-1]   --> A_2  D_2  S_2
     freq (   5-   5) =       1274.8  [cm-1]   --> B_2  D_4  S_4
     freq (   6-   6) =       1316.2  [cm-1]   --> A_1  D_1  S_1

[...]

     17 Sym.Ops. (with q -> -q+G )

[...]

     Calculation of q =   -0.5000000  -1.0000000   0.0000000

     Using Slab Decomposition

     Title:
     diamond

     bravais-lattice index     =            2
     lattice parameter (alat)  =       6.6000  a.u.
     unit-cell volume          =      71.8740 (a.u.)^3
     number of atoms/cell      =            2
     number of atomic types    =            1
     number of electrons       =         8.00
     number of Kohn-Sham states=            4
     kinetic-energy cutoff     =     110.0000  Ry
     charge density cutoff     =     440.0000  Ry
     Exchange-correlation= PZ
                           (   1   1   0   0   0   0   0)

[...]

     atomic species   valence    mass     pseudopotential
        C              4.00    12.01100     C ( 1.00)

     48 Sym. Ops., with inversion, found

[...]

     site n.     atom                  positions (alat units)
         1           C   tau(   1) = (   0.0000000   0.0000000   0.0000000  )
         2           C   tau(   2) = (   0.2500000   0.2500000   0.2500000  )

     number of k points=   512

     Number of k-points >= 100: set verbosity='high' to print them.

     The potential is recalculated from file :
     /home/bonacc_m/Documents/phonons/diamond/TMP_diamond/_ph0/diamond.save/charge-density

     Starting wfcs are    8 atomic wfcs

     Band Structure Calculation
     Davidson diagonalization with overlap

     ethr =  1.25E-10,  avg # of iterations =  9.4

     End of band structure calculation

     Number of k-points >= 100: set verbosity='high' to print the bands.

     highest occupied level (ev):    14.0967

     Writing config to output data dir /home/bonacc_m/Documents/phonons/diamond/TMP_diamond/_ph0/diamond.save/

     diamond

     bravais-lattice index     =            2
     lattice parameter (alat)  =       6.6000  a.u.
     unit-cell volume          =      71.8740 (a.u.)^3
     number of atoms/cell      =            2
     number of atomic types    =            1
     kinetic-energy cut-off    =     110.0000  Ry
     charge density cut-off    =     440.0000  Ry
     convergence threshold     =      1.0E-14
     beta                      =       0.7000
     number of iterations used =            4
     Exchange-correlation= PZ
                           (   1   1   0   0   0   0   0)

     celldm(1)=    6.60000  celldm(2)=    0.00000  celldm(3)=    0.00000
     celldm(4)=    0.00000  celldm(5)=    0.00000  celldm(6)=    0.00000

     crystal axes: (cart. coord. in units of alat)
               a(1) = ( -0.5000  0.0000  0.5000 )
               a(2) = (  0.0000  0.5000  0.5000 )
               a(3) = ( -0.5000  0.5000  0.0000 )

     reciprocal axes: (cart. coord. in units 2 pi/alat)
               b(1) = ( -1.0000 -1.0000  1.0000 )
               b(2) = (  1.0000  1.0000  1.0000 )
               b(3) = ( -1.0000  1.0000 -1.0000 )

     Atoms inside the unit cell:

     Cartesian axes

     site n.  atom      mass           positions (alat units)
        1     C   12.0110   tau(    1) = (    0.00000    0.00000    0.00000  )
        2     C   12.0110   tau(    2) = (    0.25000    0.25000    0.25000  )

     Computing dynamical matrix for
                    q = (  -0.5000000  -1.0000000   0.0000000 )

      8 Sym.Ops. (no q -> -q+G )

     G cutoff =  485.4906  (    933 G-vectors)     FFT grid: ( 32, 32, 32)
     number of k points=   512

     PseudoPot. # 1 for C  read from file:
     ./C.pz-vbc.UPF
     MD5 check sum: f697e42eaa1e52b77fcf7925dd36a1dd
     Pseudo is Norm-conserving, Zval =  4.0
     Generated by new atomic code, or converted to UPF format
     Using radial grid of  269 points,  1 beta functions with:
                l(1) =   0

     Atomic displacements:
     There are    3 irreducible representations

[...]

     Representation     3      2 modes -  To be done

     Alpha used in Ewald sum =   2.8000

[...]

     Representation #   3 modes #   5   6

     Self-consistent Calculation

[...]

      thresh= 2.098E-07 alpha_mix =  0.700 |ddv_scf|^2 =  6.519E-15

     End of self-consistent calculation

     Convergence has been achieved

     Number of q in the star =    6
     List of q in the star:
          1  -0.500000000  -1.000000000   0.000000000
          2   0.000000000   1.000000000   0.500000000
          3   0.000000000  -1.000000000  -0.500000000
          4   0.500000000   1.000000000   0.000000000
          5  -1.000000000  -0.500000000   0.000000000
          6   0.000000000  -0.500000000  -1.000000000

     Diagonalizing the dynamical matrix

     q = (   -0.500000000  -1.000000000   0.000000000 )

     freq (    1) =      28.390958 [THz] =     947.020414 [cm-1]
     freq (    2) =      28.390958 [THz] =     947.020414 [cm-1]
     freq (    3) =      31.504859 [THz] =    1050.888972 [cm-1]
     freq (    4) =      31.504859 [THz] =    1050.888972 [cm-1]
     freq (    5) =      37.142945 [THz] =    1238.955287 [cm-1]
     freq (    6) =      37.142945 [THz] =    1238.955287 [cm-1]

     General routines

     Parallel routines

     INITIALIZATION:

     DYNAMICAL MATRIX:

      General routines

   This run was terminated on:  17: 5:28   2May2024

   JOB DONE.